Li  P  S 
 1.0000000000000000
    12.3776759999999992    0.0000000000000000    0.0000000000000000
    -2.5953830000000000   12.3582859999999997    0.0000000000000000
    -2.9697610000000001   -4.5141049999999998   11.4634929999999997
 Li  P   S  
  28  12  44
Cartesian
  1.7313987499999999  8.0639025000000011  1.3784974999999999
  0.0192174999999993 -1.4742562500000003  8.9670924999999997
  1.2579549999999995  2.0816112499999999  5.8237200000000016
  2.9646499999999998  0.1213568000000000  0.1037632500000000
  2.8345012499999993  0.9601012500000010  8.6459074999999999
  2.2180662499999992 -2.4361774999999999  6.9015462500000000
  2.9279762500000004 10.7573375000000002  3.0041424999999999
 -2.0552350000000001  0.1753547500000002 10.8356875000000006
  0.1190850000000006  6.5904912500000004  9.7279975000000007
 -2.9452887500000005  3.8889925000000005 10.0107762499999993
  8.0459949999999996  0.2901384999999999  8.3101387500000001
  0.5092751249999999  1.1668362500000000  1.8639737500000002
 -0.6773603750000002  5.7139174999999991  5.8146212500000010
  9.9608962500000011  3.7699212499999999  1.8569400000000000
  7.8199362500000005  8.0353437500000009  1.5914787500000003
  5.5165937500000002 -2.6912362499999998  8.4026399999999999
  8.3957937500000011  1.6320762499999997  5.5424812499999998
  4.6996512499999996  7.3327624999999994 11.0542499999999997
  7.1580772499999981  8.9565650000000012  8.0026275000000009
  3.9531725000000000  4.1463812500000001  1.3515325000000000
  6.9034674999999996 10.1872250000000015  3.9664362500000006
 -1.3031575000000000  7.5325112499999989  3.1595087500000001
  7.6225512499999990  5.5979662499999989  8.0800599999999996
  3.2076112500000007  4.1115737499999989  9.9028375000000004
  5.3469062500000000  0.0151612874999998 10.7869875000000022
  7.2642662499999995  1.0887337500000001  1.3407099999999998
  4.6205812500000008  6.1740724999999985  5.6881450000000005
  5.2632800000000000  2.3886550000000000  3.6478649999999999
  1.0424347500000000  4.6411312499999999  3.2478525000000000
  1.8120112500000005  7.6176550000000010  5.1827900000000007
  2.4200012499999994 -2.1527212499999999 10.7013125000000002
 -1.5298737500000001 10.0973249999999997  0.5789091250000000
 -0.3318509999999999  3.1662299999999997  8.3739212500000004
 -1.1000662500000000  0.1574434999999999  6.4050100000000008
  7.2157424999999993  4.6683787500000005  3.2496337499999997
  7.9320975000000002  7.5481075000000013  5.2784162500000003
  8.4452312500000009 -2.2504024999999999 10.8391000000000002
  4.7783137500000006 10.0842250000000000  0.6866125000000001
  5.7787162499999978  3.0389525000000002  8.0992512500000000
  5.1530575000000001  0.1324290000000003  6.0486037499999998
  2.8043087499999988  8.3842375000000011  3.6292200000000001
 -0.9623674999999999  4.9986000000000006  3.4380550000000007
  1.9113124999999991  5.4361375000000001  5.0544737499999997
  0.8743063750000002 -0.2946230000000002  6.4426375000000009
  1.8710850000000001  5.4699837499999999  1.5828762500000000
 -1.0174651250000002  2.3575250000000012 10.0862499999999997
 -0.1761191249999998  8.1030825000000011  5.3092775000000012
 -3.5151137499999994  7.6217012500000001  7.0784600000000006
 -0.8557557499999999 11.3950999999999993  2.0052662500000000
 -1.8732449999999998 -2.2865400000000000 11.0315374999999989
  1.6440425000000003  2.7128287499999995  3.4900187499999999
  4.3136062500000003  0.1243246250000000  4.2054912499999997
 -1.2507812500000002  2.3185287500000005  6.5881287500000001
  4.7343149999999996  1.6741325000000000  1.0780375000000000
  1.6127637500000001 -3.3872087500000001  9.2443637499999998
  2.7090725000000000 10.1973625000000006  0.5547263750000000
 -2.0689700000000002 -0.7515303750000001  7.9540962500000001
  1.6387387499999997 -0.2673657500000000 10.4357500000000005
  1.6798762500000002  3.0664737500000010  8.0600074999999993
 -1.0836662500000003  5.0433987499999997  8.1252800000000001
 -3.6993524999999998  6.2062024999999998 10.2237124999999995
 -0.7522415000000000  8.1868324999999995  0.8978661250000001
  8.8758949999999981  8.5631562500000005  3.7919037499999999
  5.2037362499999986  4.8902962499999996  3.4110600000000004
  8.1188112500000003  5.4059300000000006  5.0580412499999996
  7.0981174999999990 -0.4000608750000000  6.1338700000000008
  8.1107300000000002  5.5308712499999997  1.6459712500000001
  4.8663212499999995  2.1755387499999999  9.7047349999999994
  6.0250312500000014  8.2093212500000003  5.3491462499999995
  2.7894699999999992  7.6441937499999986  6.9439887499999999
  5.2939325000000013 11.2442250000000001  2.3369700000000000
  4.4658199999999999 -2.2305787499999998 10.7026000000000003
  7.7977187499999996  2.6962612499999996  3.3715450000000002
 10.3232125000000003  0.1041088000000000  4.6318625000000004
  4.8609362499999991  2.2575925000000008  6.3108012499999999
 10.5889249999999997  1.4843250000000003  1.0821087500000000
  7.8314950000000003 -3.3544049999999999  9.2221325000000007
  8.8227462499999980  9.9220450000000007  0.4369730000000000
  4.1060237499999994 -0.8593448750000002  7.4972762500000014
  7.8580499999999986 -0.2573958749999997 10.7059250000000006
  7.8112174999999997  2.7888962500000001  8.0087612499999992
  5.2271074999999989  4.9834612500000004  7.9604887499999997
  2.5012725000000002  6.4331412499999994 10.4034875000000007
  5.4517487500000001  8.1807750000000006  0.8249246250000000
