Li  P  S 
 1.0000000000000000
    12.3776759999999992    0.0000000000000000    0.0000000000000000
    -2.5953830000000000   12.3582859999999997    0.0000000000000000
    -2.9697610000000001   -4.5141049999999998   11.4634929999999997
 Li  P   S  
  28  12  44
Cartesian
  1.7302649999999999  8.0642500000000013  1.3810799999999999
  0.0640959999999998 -1.4188350000000001  8.9260699999999993
  1.2592800000000000  2.0878449999999997  5.8193300000000008
  2.9784699999999997  0.1121644000000000  0.1049590000000000
  2.8432350000000000  0.9673959999999999  8.6382600000000007
  2.2275650000000002 -2.4374199999999999  6.8935350000000000
  2.9268749999999994 10.7543500000000005  3.0045200000000003
 -2.0599699999999999  0.1723800000000000 10.8196499999999993
  0.1168789999999994  6.5969050000000005  9.7244700000000002
 -2.9186850000000000  3.9125000000000001 10.0055350000000001
  8.0493699999999979  0.2775910000000001  8.3057949999999998
  0.5048044999999999  1.1694050000000000  1.8581350000000003
 -0.7193484999999997  5.7360400000000009  5.8137449999999999
  9.9529950000000014  3.7751250000000001  1.8553000000000002
  7.8085049999999994  8.0382150000000010  1.6014850000000000
  5.5238250000000013 -2.6950849999999997  8.3940400000000004
  8.3974150000000005  1.6300450000000000  5.5380149999999997
  4.6859149999999987  7.3350200000000001 11.0647000000000002
  7.2522229999999990  8.8583800000000004  8.1951999999999998
  3.9511099999999990  4.1548949999999998  1.3496200000000000
  6.8903200000000009 10.1819999999999986  3.9899250000000004
 -1.3099200000000000  7.5378549999999995  3.1444350000000001
  7.6441049999999997  5.5586349999999998  8.0543300000000002
  3.2112349999999990  4.1100950000000012  9.9042700000000021
  5.3382350000000001  0.0074446499999997 10.7807500000000012
  7.2597049999999994  1.0880350000000001  1.3404699999999998
  4.6150450000000003  6.1729500000000002  5.6843199999999996
  5.2606000000000002  2.3846100000000008  3.6444600000000000
  1.0338429999999998  4.6438750000000004  3.2438799999999999
  1.8082750000000005  7.6165399999999996  5.1770300000000002
  2.4213950000000000 -2.1505349999999996 10.6984499999999993
 -1.5388150000000000 10.1037999999999997  0.5735795000000000
 -0.3270810000000000  3.1653399999999996  8.3716249999999999
 -1.0988350000000000  0.1586919999999999  6.4079600000000001
  7.2112500000000006  4.6663949999999996  3.2471949999999996
  7.9311500000000006  7.5430000000000010  5.2850750000000000
  8.4343249999999976 -2.2534800000000001 10.8421000000000003
  4.7730149999999991 10.0827999999999989  0.6848980000000001
  5.7822250000000004  3.0356900000000007  8.0960850000000004
  5.1555900000000001  0.1286109999999999  6.0462950000000006
  2.8091849999999998  8.3812800000000003  3.6271200000000006
 -0.9710559999999999  5.0040100000000001  3.4347500000000002
  1.9030199999999997  5.4367500000000000  5.0496149999999993
  0.8788915000000000 -0.2909010000000001  6.4425299999999996
  1.8609099999999998  5.4697250000000004  1.5760250000000000
 -1.0093035000000001  2.3540500000000000 10.0838999999999999
 -0.1781855000000000  8.1112800000000007  5.2940699999999996
 -3.4935649999999998  7.5958349999999992  7.0756300000000003
 -0.8595959999999999 11.3993000000000002  1.9989750000000002
 -1.8829900000000002 -2.2943799999999999 11.0234500000000022
  1.6348399999999994  2.7148050000000006  3.4848450000000000
  4.3114050000000006  0.1201444999999999  4.2052449999999997
 -1.2461450000000001  2.3204949999999998  6.5854549999999996
  4.7314699999999990  1.6786800000000006  1.0744300000000000
  1.6031449999999998 -3.3767149999999999  9.2401049999999998
  2.7033199999999993 10.1996500000000001  0.5539305000000000
 -2.0579000000000001 -0.7539275000000001  7.9572750000000001
  1.6578549999999999 -0.2570499999999994 10.4385000000000012
  1.6840750000000000  3.0729950000000001  8.0557599999999994
 -1.0868349999999998  5.0409849999999992  8.1288000000000000
 -3.7190699999999999  6.2214799999999988 10.2126500000000000
 -0.7517400000000004  8.1965199999999996  0.8830575000000002
  8.8703299999999992  8.5646550000000001  3.7991150000000000
  5.1990850000000002  4.8862349999999992  3.4135800000000001
  8.1225349999999992  5.4008400000000005  5.0517349999999999
  7.1001899999999987 -0.4049524999999998  6.1278100000000011
  8.1000100000000010  5.5307049999999993  1.6409050000000003
  4.8695850000000007  2.1750750000000001  9.7028099999999995
  6.0261750000000003  8.1967949999999981  5.3669349999999998
  2.7793500000000004  7.6393749999999994  6.9417050000000007
  5.2917500000000013 11.2413000000000007  2.3354400000000002
  4.4664899999999994 -2.2420050000000002 10.6978000000000009
  7.7940250000000004  2.6941050000000000  3.3676800000000000
 10.3258499999999991  0.1030564000000000  4.6338400000000002
  4.8625550000000004  2.2532500000000000  6.3088150000000001
 10.5800999999999998  1.4875600000000000  1.0890649999999999
  7.8296600000000005 -3.3624799999999997  9.2267399999999995
  8.8145249999999997  9.9236800000000009  0.4407430000000000
  4.1105649999999994 -0.8623524999999999  7.4974249999999998
  7.8499599999999994 -0.2604514999999997 10.7029999999999994
  7.8146999999999993  2.7812250000000005  8.0066249999999997
  5.2374399999999994  4.9810850000000002  7.9556149999999999
  2.4967000000000001  6.4296349999999993 10.4012500000000010
  5.4445249999999996  8.1785899999999998  0.8225365000000000
