Li  P  S 
 1.0000000000000000
    12.3776759999999992    0.0000000000000000    0.0000000000000000
    -2.5953830000000000   12.3582859999999997    0.0000000000000000
    -2.9697610000000001   -4.5141049999999998   11.4634929999999997
 Li  P   S  
  28  12  44
Cartesian
  1.7291312499999998  8.0645974999999996  1.3836625000000000
  0.1089745000000000 -1.3634137499999996  8.8850474999999989
  1.2606050000000000  2.0940787499999995  5.8149400000000009
  2.9922900000000001  0.1029720000000000  0.1061547500000000
  2.8519687500000002  0.9746907500000002  8.6306125000000016
  2.2370637499999999 -2.4386625000000000  6.8855237499999999
  2.9257737499999994 10.7513624999999973  3.0048975000000002
 -2.0647050000000000  0.1694052499999997 10.8036124999999998
  0.1146730000000000  6.6033187499999997  9.7209424999999996
 -2.8920812499999999  3.9360074999999997 10.0002937500000009
  8.0527449999999980  0.2650435000000007  8.3014512499999995
  0.5003338749999999  1.1719737500000000  1.8522962500000002
 -0.7613366250000000  5.7581625000000010  5.8128687500000007
  9.9450937499999998  3.7803287499999993  1.8536600000000001
  7.7970737500000009  8.0410862499999993  1.6114912500000000
  5.5310562500000007 -2.6989337500000001  8.3854400000000009
  8.3990362499999982  1.6280137500000005  5.5335487500000005
  4.6721787499999969  7.3372774999999999 11.0751500000000007
  7.3463687499999981  8.7601949999999995  8.3877725000000005
  3.9490475000000003  4.1634087500000012  1.3477075000000001
  6.8771724999999986 10.1767750000000010  4.0134137499999998
 -1.3166825000000000  7.5431987499999993  3.1293612500000001
  7.6656587500000004  5.5193037500000006  8.0285999999999991
  3.2148587499999990  4.1086162500000016  9.9057025000000003
  5.3295637500000002 -0.0002719874999998 10.7745125000000002
  7.2551437499999993  1.0873362500000001  1.3402300000000000
  4.6095087499999989  6.1718275000000018  5.6804949999999996
  5.2579200000000004  2.3805649999999998  3.6410550000000002
  1.0252512500000004  4.6466187500000000  3.2399075000000006
  1.8045387499999999  7.6154249999999992  5.1712699999999998
  2.4227887500000005 -2.1483487499999998 10.6955874999999985
 -1.5477562499999997 10.1102750000000015  0.5682498750000000
 -0.3223109999999999  3.1644499999999991  8.3693287499999993
 -1.0976037500000002  0.1599404999999999  6.4109100000000003
  7.2067575000000001  4.6644112500000006  3.2447562500000000
  7.9302025000000000  7.5378925000000008  5.2917337499999997
  8.4234187499999997 -2.2565575000000004 10.8451000000000004
  4.7677162499999994 10.0813750000000013  0.6831834999999999
  5.7857337500000003  3.0324275000000003  8.0929187500000008
  5.1581224999999993  0.1247929999999997  6.0439862500000006
  2.8140612500000004  8.3783224999999995  3.6250200000000006
 -0.9797444999999999  5.0094199999999995  3.4314450000000001
  1.8947274999999997  5.4373624999999999  5.0447562499999998
  0.8834766249999997 -0.2871789999999995  6.4424225000000002
  1.8507349999999996  5.4694662500000000  1.5691737500000000
 -1.0011418750000003  2.3505750000000014 10.0815500000000000
 -0.1802518750000001  8.1194775000000003  5.2788624999999998
 -3.4720162499999998  7.5699687500000001  7.0728000000000000
 -0.8634362499999999 11.4035000000000011  1.9926837500000001
 -1.8927349999999998 -2.3022200000000002 11.0153625000000002
  1.6256375000000001  2.7167812500000004  3.4796712500000000
  4.3092037499999991  0.1159643750000000  4.2049987499999997
 -1.2415087499999999  2.3224612499999999  6.5827812500000009
  4.7286250000000001  1.6832275000000003  1.0708225000000000
  1.5935262500000000 -3.3662212499999997  9.2358462499999998
  2.6975675000000003 10.2019374999999997  0.5531346250000000
 -2.0468299999999999 -0.7563246250000001  7.9604537500000001
  1.6769712500000000 -0.2467342499999995 10.4412500000000001
  1.6882737499999989  3.0795162499999997  8.0515124999999994
 -1.0900037499999997  5.0385712500000004  8.1323200000000000
 -3.7387874999999999  6.2367574999999995 10.2015875000000005
 -0.7512385000000000  8.2062075000000014  0.8682488750000000
  8.8647650000000002  8.5661537499999998  3.8063262500000001
  5.1944337500000000  4.8821737500000006  3.4161000000000001
  8.1262587499999981  5.3957500000000014  5.0454287500000001
  7.1022625000000001 -0.4098441250000004  6.1217500000000014
  8.0892900000000001  5.5305387499999998  1.6358387500000000
  4.8728487499999993  2.1746112499999999  9.7008849999999995
  6.0273187500000001  8.1842687499999993  5.3847237500000000
  2.7692299999999990  7.6345562500000002  6.9394212500000005
  5.2895675000000004 11.2383749999999996  2.3339099999999999
  4.4671599999999998 -2.2534312500000007 10.6929999999999996
  7.7903312500000013  2.6919487499999999  3.3638149999999998
 10.3284874999999996  0.1020040000000000  4.6358174999999999
  4.8641737500000017  2.2489075000000005  6.3068287500000002
 10.5712750000000000  1.4907949999999999  1.0960212499999999
  7.8278250000000007 -3.3705550000000000  9.2313475000000000
  8.8063037499999997  9.9253149999999994  0.4445130000000000
  4.1151062499999993 -0.8653601250000001  7.4975737500000008
  7.8418700000000010 -0.2635071249999997 10.7000750000000000
  7.8181825000000007  2.7735537500000000  8.0044887500000002
  5.2477725000000000  4.9787087500000000  7.9507412500000001
  2.4921274999999992  6.4261287500000019 10.3990124999999995
  5.4373012499999991  8.1764050000000008  0.8201483750000000
