Li  P  S 
 1.0000000000000000
    12.3776759999999992    0.0000000000000000    0.0000000000000000
    -2.5953830000000000   12.3582859999999997    0.0000000000000000
    -2.9697610000000001   -4.5141049999999998   11.4634929999999997
 Li  P   S  
  28  12  44
Cartesian
  1.7268637499999995  8.0652925000000000  1.3888275000000001
  0.1987315000000001 -1.2525712499999997  8.8030024999999998
  1.2632550000000000  2.1065462500000001  5.8061600000000002
  3.0199300000000000  0.0845872000000000  0.1085462500000000
  2.8694362499999997  0.9892802499999998  8.6153174999999997
  2.2560612500000001 -2.4411475000000000  6.8695012500000008
  2.9235712499999997 10.7453874999999996  3.0056525000000001
 -2.0741749999999999  0.1634557500000002 10.7715374999999991
  0.1102610000000004  6.6161462499999999  9.7138875000000002
 -2.8388737499999999  3.9830225000000001  9.9898112499999989
  8.0594950000000001  0.2399485000000005  8.2927637500000007
  0.4913926249999997  1.1771112500000003  1.8406187500000002
 -0.8453128750000006  5.8024075000000011  5.8111162500000004
  9.9292912500000003  3.7907362499999993  1.8503800000000004
  7.7742112499999987  8.0468287499999995  1.6315037500000000
  5.5455187499999994 -2.7066312499999996  8.3682400000000001
  8.4022787500000007  1.6239512500000004  5.5246162500000002
  4.6447062500000005  7.3417925000000004 11.0960500000000017
  7.5346602499999982  8.5638250000000014  8.7729175000000001
  3.9449225000000006  4.1804362500000005  1.3438825000000001
  6.8508775000000002 10.1663250000000005  4.0603912499999995
 -1.3302075000000002  7.5538862499999997  3.0992137500000001
  7.7087662499999983  5.4406412500000005  7.9771400000000003
  3.2221062499999995  4.1056587499999990  9.9085675000000002
  5.3122212500000003 -0.0157052625000002 10.7620374999999999
  7.2460212500000001  1.0859387500000000  1.3397500000000000
  4.5984362500000007  6.1695825000000006  5.6728449999999997
  5.2525599999999999  2.3724750000000001  3.6342449999999999
  1.0080677500000002  4.6521062500000001  3.2319625000000003
  1.7970662499999994  7.6131950000000010  5.1597500000000007
  2.4255762499999984 -2.1439762499999997 10.6898625000000003
 -1.5656387500000002 10.1232249999999997  0.5575906250000000
 -0.3127709999999999  3.1626700000000008  8.3647362500000000
 -1.0951412500000000  0.1624375000000004  6.4168100000000008
  7.1977724999999975  4.6604437499999998  3.2398787500000004
  7.9283074999999981  7.5276775000000020  5.3050512500000000
  8.4016062499999986 -2.2627125000000006 10.8511000000000006
  4.7571187499999992 10.0785250000000008  0.6797545000000000
  5.7927512500000011  3.0259025000000004  8.0865862499999999
  5.1631875000000003  0.1171570000000001  6.0393687500000004
  2.8238137499999998  8.3724075000000013  3.6208200000000001
 -0.9971215000000001  5.0202399999999985  3.4248350000000003
  1.8781424999999996  5.4385875000000006  5.0350387500000000
  0.8926468749999993 -0.2797350000000003  6.4422075000000012
  1.8303850000000002  5.4689487500000000  1.5554712500000001
 -0.9848186249999998  2.3436249999999998 10.0768500000000003
 -0.1843846249999999  8.1358725000000014  5.2484475000000010
 -3.4289187499999998  7.5182362500000002  7.0671400000000002
 -0.8711167500000002 11.4119000000000010  1.9801012500000001
 -1.9122250000000001 -2.3179000000000003 10.9991874999999997
  1.6072324999999996  2.7207337500000004  3.4693237500000000
  4.3048012499999988  0.1076041249999999  4.2045062499999997
 -1.2322362500000004  2.3263937499999994  6.5774337500000009
  4.7229349999999988  1.6923225000000002  1.0636075000000000
  1.5742887500000002 -3.3452337500000002  9.2273287499999999
  2.6860624999999994 10.2065125000000005  0.5515428750000000
 -2.0246900000000001 -0.7611188750000002  7.9668112500000010
  1.7152037499999999 -0.2261027500000001 10.4467499999999998
  1.6966712499999996  3.0925587499999998  8.0430174999999995
 -1.0963412500000003  5.0337437499999993  8.1393599999999999
 -3.7782225000000000  6.2673125000000001 10.1794624999999996
 -0.7502355000000001  8.2255824999999998  0.8386316250000000
  8.8536350000000024  8.5691512500000027  3.8207487500000004
  5.1851312500000004  4.8740512499999999  3.4211400000000003
  8.1337062499999995  5.3855700000000004  5.0328162499999998
  7.1064074999999987 -0.4196273749999999  6.1096300000000010
  8.0678500000000000  5.5302062500000009  1.6257062500000001
  4.8793762499999991  2.1736837499999999  9.6970349999999996
  6.0296062500000005  8.1592162500000001  5.4203012499999996
  2.7489900000000014  7.6249187500000009  6.9348537500000003
  5.2852024999999987 11.2325249999999990  2.3308499999999999
  4.4684999999999988 -2.2762837500000006 10.6833999999999989
  7.7829437500000012  2.6876362500000002  3.3560850000000002
 10.3337624999999971  0.0998992000000000  4.6397725000000003
  4.8674112500000000  2.2402224999999998  6.3028562499999996
 10.5536250000000003  1.4972650000000003  1.1099337499999999
  7.8241550000000002 -3.3867050000000001  9.2405624999999993
  8.7898612499999977  9.9285850000000000  0.4520530000000000
  4.1241887499999992 -0.8713753750000001  7.4978712500000011
  7.8256900000000016 -0.2696183749999997 10.6942249999999994
  7.8251474999999999  2.7582112500000000  8.0002162499999994
  5.2684375000000010  4.9739562500000005  7.9409937499999996
  2.4829824999999999  6.4191162500000010 10.3945375000000002
  5.4228537499999998  8.1720350000000010  0.8153721250000000
