Li  P  S 
 1.0000000000000000
    12.3776759999999992    0.0000000000000000    0.0000000000000000
    -2.5953830000000000   12.3582859999999997    0.0000000000000000
    -2.9697610000000001   -4.5141049999999998   11.4634929999999997
 Li  P   S  
  28  12  44
Cartesian
  1.7279974999999992  8.0649449999999998  1.3862449999999999
  0.1538530000000002 -1.3079925000000001  8.8440249999999985
  1.2619300000000000  2.1003124999999998  5.8105500000000001
  3.0061100000000001  0.0937796000000000  0.1073505000000000
  2.8607024999999995  0.9819855000000004  8.6229650000000007
  2.2465624999999996 -2.4399050000000000  6.8775124999999999
  2.9246724999999993 10.7483749999999993  3.0052750000000001
 -2.0694400000000006  0.1664304999999995 10.7875750000000004
  0.1124670000000001  6.6097325000000016  9.7174149999999990
 -2.8654774999999999  3.9595150000000001  9.9950524999999999
  8.0561199999999999  0.2524959999999999  8.2971074999999992
  0.4958632500000000  1.1745425000000003  1.8464575000000001
 -0.8033247500000003  5.7802850000000001  5.8119925000000014
  9.9371925000000001  3.7855325000000000  1.8520200000000000
  7.7856424999999980  8.0439574999999994  1.6214975000000003
  5.5382875000000000 -2.7027825000000001  8.3768400000000014
  8.4006574999999994  1.6259825000000001  5.5290825000000003
  4.6584424999999969  7.3395349999999997 11.0856000000000012
  7.4405144999999981  8.6620100000000004  8.5803450000000012
  3.9469849999999993  4.1719224999999991  1.3457950000000001
  6.8640249999999972 10.1715499999999999  4.0369025000000001
 -1.3234450000000000  7.5485425000000008  3.1142875000000005
  7.6872125000000011  5.4799724999999997  8.0028699999999997
  3.2184824999999986  4.1071375000000003  9.9071350000000002
  5.3208925000000002 -0.0079886250000007 10.7682750000000009
  7.2505825000000002  1.0866374999999999  1.3399900000000000
  4.6039725000000011  6.1707049999999999  5.6766699999999997
  5.2552400000000006  2.3765200000000002  3.6376500000000003
  1.0166594999999998  4.6493625000000014  3.2359350000000004
  1.8008024999999999  7.6143099999999997  5.1655100000000003
  2.4241825000000010 -2.1461625000000004 10.6927249999999994
 -1.5566975000000001 10.1167499999999997  0.5629202500000000
 -0.3175410000000003  3.1635599999999999  8.3670325000000005
 -1.0963725000000002  0.1611889999999999  6.4138599999999997
  7.2022649999999979  4.6624274999999997  3.2423175000000000
  7.9292549999999995  7.5327850000000005  5.2983925000000003
  8.4125125000000001 -2.2596349999999998 10.8481000000000005
  4.7624174999999989 10.0799500000000002  0.6814690000000000
  5.7892425000000012  3.0291650000000008  8.0897524999999995
  5.1606549999999993  0.1209749999999999  6.0416775000000014
  2.8189375000000005  8.3753650000000004  3.6229200000000001
 -0.9884329999999999  5.0148299999999999  3.4281400000000000
  1.8864349999999999  5.4379749999999998  5.0398974999999995
  0.8880617500000002 -0.2834569999999999  6.4423150000000007
  1.8405600000000000  5.4692074999999996  1.5623225000000001
 -0.9929802500000008  2.3471000000000011 10.0792000000000002
 -0.1823182499999999  8.1276750000000000  5.2636550000000000
 -3.4504674999999998  7.5441025000000010  7.0699700000000005
 -0.8672765000000001 11.4077000000000002  1.9863925000000000
 -1.9024800000000002 -2.3100599999999996 11.0072749999999999
  1.6164349999999998  2.7187575000000002  3.4744975000000005
  4.3070024999999994  0.1117842499999999  4.2047524999999997
 -1.2368725000000000  2.3244275000000001  6.5801075000000013
  4.7257800000000003  1.6877750000000000  1.0672150000000000
  1.5839074999999998 -3.3557275000000000  9.2315874999999998
  2.6918150000000005 10.2042250000000010  0.5523387500000000
 -2.0357599999999998 -0.7587217499999998  7.9636325000000001
  1.6960874999999993 -0.2364184999999994 10.4440000000000008
  1.6924725000000000  3.0860374999999998  8.0472649999999994
 -1.0931725000000003  5.0361574999999998  8.1358400000000000
 -3.7585050000000000  6.2520350000000002 10.1905250000000009
 -0.7507370000000000  8.2158949999999997  0.8534402500000000
  8.8591999999999977  8.5676525000000012  3.8135375000000002
  5.1897824999999997  4.8781124999999994  3.4186199999999998
  8.1299824999999988  5.3906600000000013  5.0391224999999995
  7.1043350000000007 -0.4147357499999996  6.1156900000000007
  8.0785700000000009  5.5303725000000004  1.6307725000000002
  4.8761124999999987  2.1741474999999997  9.6989599999999996
  6.0284624999999981  8.1717425000000006  5.4025125000000003
  2.7591099999999997  7.6297374999999992  6.9371375000000013
  5.2873850000000004 11.2354500000000019  2.3323800000000001
  4.4678299999999993 -2.2648574999999997 10.6882000000000001
  7.7866374999999985  2.6897925000000003  3.3599500000000000
 10.3311249999999983  0.1009516000000000  4.6377950000000006
  4.8657925000000004  2.2445649999999997  6.3048425000000003
 10.5624499999999983  1.4940300000000000  1.1029774999999999
  7.8259900000000000 -3.3786299999999998  9.2359550000000006
  8.7980824999999996  9.9269499999999997  0.4482830000000000
  4.1196475000000001 -0.8683677499999999  7.4977225000000010
  7.8337800000000000 -0.2665627500000002 10.6971500000000006
  7.8216649999999985  2.7658825000000000  8.0023525000000006
  5.2581049999999978  4.9763324999999998  7.9458675000000003
  2.4875550000000000  6.4226225000000001 10.3967749999999999
  5.4300774999999994  8.1742200000000000  0.8177602500000001
