Li  P  S 
 1.0000000000000000
    12.3776759999999992    0.0000000000000000    0.0000000000000000
    -2.5953830000000000   12.3582859999999997    0.0000000000000000
    -2.9697610000000001   -4.5141049999999998   11.4634929999999997
 Li  P   S  
  28  12  44
Cartesian
  1.7336662500000002  8.0632075000000025  1.3733324999999998
 -0.0705395000000000 -1.5850987499999998  9.0491374999999987
  1.2553049999999999  2.0691437499999994  5.8325000000000005
  2.9370099999999995  0.1397416000000000  0.1013717500000000
  2.8170337500000007  0.9455117499999997  8.6612025000000017
  2.1990687500000003 -2.4336924999999998  6.9175687500000000
  2.9301787500000001 10.7633124999999978  3.0033875000000005
 -2.0457650000000003  0.1813042500000002 10.8677625000000013
  0.1234970000000002  6.5776637500000001  9.7350525000000001
 -2.9984962500000005  3.8419775000000005 10.0212587500000012
  8.0392449999999975  0.3152335000000001  8.3188262499999990
  0.5182163750000001  1.1616987500000000  1.8756512500000004
 -0.5933841250000000  5.6696725000000008  5.8163737499999995
  9.9766987499999971  3.7595137500000000  1.8602200000000000
  7.8427987500000009  8.0296012500000007  1.5714662500000001
  5.5021312500000006 -2.6835387499999999  8.4198400000000007
  8.3925512500000004  1.6361387500000000  5.5514137500000009
  4.7271237499999996  7.3282474999999998 11.0333500000000004
  6.9697857500000007  9.1529349999999994  7.6174824999999995
  3.9572975000000006  4.1293537499999999  1.3553575000000000
  6.9297624999999998 10.1976750000000003  3.9194587500000004
 -1.2896325000000002  7.5218237500000003  3.1896562500000005
  7.5794437500000011  5.6766287500000008  8.1315200000000001
  3.2003637499999993  4.1145312500000015  9.8999725000000005
  5.3642487499999998  0.0305945625000007 10.7994625000000006
  7.2733887499999987  1.0901312500000004  1.3411899999999999
  4.6316537500000008  6.1763174999999997  5.6957950000000004
  5.2686400000000004  2.3967449999999997  3.6546750000000001
  1.0596182499999998  4.6356437499999998  3.2557974999999999
  1.8194837499999996  7.6198849999999991  5.1943099999999998
  2.4172137500000006 -2.1570937500000000 10.7070374999999984
 -1.5119912500000001 10.0843749999999996  0.5895683750000000
 -0.3413909999999998  3.1680100000000002  8.3785137499999998
 -1.1025287500000001  0.1549464999999999  6.3991100000000003
  7.2247274999999993  4.6723462500000004  3.2545112500000002
  7.9339925000000013  7.5583225000000001  5.2650987499999999
  8.4670437500000002 -2.2442475000000002 10.8331000000000000
  4.7889112500000000 10.0870750000000005  0.6900415000000000
  5.7716987499999997  3.0454775000000001  8.1055837500000010
  5.1479924999999991  0.1400649999999999  6.0532212500000000
  2.7945562499999994  8.3901524999999975  3.6334200000000001
 -0.9449905000000002  4.9877800000000008  3.4446650000000001
  1.9278975000000000  5.4349125000000003  5.0641912499999995
  0.8651361249999996 -0.3020669999999999  6.4428524999999999
  1.8914349999999993  5.4705012500000008  1.5965787500000002
 -1.0337883749999996  2.3644750000000001 10.0909499999999994
 -0.1719863750000004  8.0866875000000018  5.3396925000000000
 -3.5582112500000003  7.6734337499999992  7.0841199999999995
 -0.8480752499999999 11.3867000000000012  2.0178487500000002
 -1.8537550000000000 -2.2708599999999999 11.0477124999999994
  1.6624475000000003  2.7088762499999999  3.5003662499999999
  4.3180087500000006  0.1326848750000003  4.2059837499999997
 -1.2600537500000000  2.3145962500000001  6.5934762500000001
  4.7400050000000000  1.6650375000000002  1.0852525000000000
  1.6320012500000001 -3.4081962499999996  9.2528812499999997
  2.7205775000000005 10.1927874999999997  0.5563181250000000
 -2.0911100000000000 -0.7467361250000001  7.9477387500000010
  1.6005062500000002 -0.2879972499999995 10.4302500000000009
  1.6714787499999997  3.0534312499999996  8.0685024999999992
 -1.0773287499999999  5.0482262499999990  8.1182400000000001
 -3.6599175000000006  6.1756474999999993 10.2458375000000004
 -0.7532445000000000  8.1674574999999994  0.9274833750000000
  8.8870249999999977  8.5601587499999994  3.7774812500000001
  5.2130387499999999  4.8984187499999994  3.4060200000000003
  8.1113637499999989  5.4161100000000006  5.0706537500000000
  7.0939724999999978 -0.3902776250000001  6.1459900000000003
  8.1321700000000003  5.5312037499999995  1.6561037500000002
  4.8597937499999988  2.1764662500000007  9.7085849999999994
  6.0227437500000001  8.2343737499999996  5.3135687500000000
  2.8097099999999995  7.6538312499999988  6.9485562500000002
  5.2982975000000012 11.2500750000000007  2.3400300000000001
  4.4644799999999991 -2.2077262499999999 10.7122000000000011
  7.8051062499999997  2.7005737499999993  3.3792750000000003
 10.3179375000000011  0.1062136000000003  4.6279075000000001
  4.8576987500000008  2.2662775000000006  6.3147737500000005
 10.6065749999999994  1.4778550000000001  1.0681962500000000
  7.8351650000000008 -3.3382549999999998  9.2129175000000014
  8.8391887499999999  9.9187750000000019  0.4294330000000000
  4.0969412499999995 -0.8533296249999998  7.4969787500000002
  7.8742299999999990 -0.2512846250000002 10.7117750000000012
  7.8042524999999987  2.8042387500000001  8.0130337500000000
  5.2064424999999988  4.9882137499999999  7.9702362500000010
  2.5104175000000004  6.4401537499999995 10.4079625000000000
  5.4661962500000003  8.1851449999999986  0.8297008750000000
