Li  P  S 
 1.0000000000000000
    12.3776759999999992    0.0000000000000000    0.0000000000000000
    -2.5953830000000000   12.3582859999999997    0.0000000000000000
    -2.9697610000000001   -4.5141049999999998   11.4634929999999997
 Li  P   S  
  28  12  44
Cartesian
  1.7347999999999999  8.0628600000000006  1.3707499999999999
 -0.1154180000000000 -1.6405200000000000  9.0901599999999991
  1.2539800000000001  2.0629100000000000  5.8368900000000004
  2.9231900000000000  0.1489340000000000  0.1001760000000000
  2.8083000000000000  0.9382170000000000  8.6688500000000008
  2.1895699999999998 -2.4324499999999998  6.9255800000000001
  2.9312800000000001 10.7662999999999993  3.0030100000000002
 -2.0410300000000001  0.1842790000000000 10.8838000000000008
  0.1257030000000000  6.5712500000000000  9.7385800000000007
 -3.0251000000000001  3.8184700000000000 10.0265000000000004
  8.0358699999999992  0.3277810000000000  8.3231699999999993
  0.5226870000000000  1.1591300000000000  1.8814900000000001
 -0.5513960000000000  5.6475499999999998  5.8172499999999996
  9.9846000000000004  3.7543099999999998  1.8618600000000001
  7.8542300000000003  8.0267300000000006  1.5614600000000001
  5.4949000000000003 -2.6796899999999999  8.4284400000000002
  8.3909300000000009  1.6381699999999999  5.5558800000000002
  4.7408599999999996  7.3259900000000000 11.0228999999999999
  6.8756399999999998  9.2511200000000002  7.4249099999999997
  3.9593600000000002  4.1208400000000003  1.3572700000000000
  6.9429100000000004 10.2028999999999996  3.8959700000000002
 -1.2828700000000000  7.5164799999999996  3.2047300000000001
  7.5578900000000004  5.7159599999999999  8.1572499999999994
  3.1967400000000001  4.1160100000000002  9.8985400000000006
  5.3729199999999997  0.0383112000000000 10.8056999999999999
  7.2779499999999997  1.0908300000000000  1.3414299999999999
  4.6371900000000004  6.1774399999999998  5.6996200000000004
  5.2713200000000002  2.4007900000000002  3.6580800000000000
  1.0682100000000001  4.6329000000000002  3.2597700000000001
  1.8232200000000001  7.6210000000000004  5.2000700000000002
  2.4158200000000001 -2.1592799999999999 10.7098999999999993
 -1.5030500000000000 10.0778999999999996  0.5948980000000000
 -0.3461610000000000  3.1688999999999998  8.3808100000000003
 -1.1037600000000001  0.1536980000000000  6.3961600000000001
  7.2292199999999998  4.6743300000000003  3.2569499999999998
  7.9349400000000001  7.5634300000000003  5.2584400000000002
  8.4779499999999999 -2.2411699999999999 10.8300999999999998
  4.7942099999999996 10.0884999999999998  0.6917560000000000
  5.7681899999999997  3.0487400000000000  8.1087500000000006
  5.1454599999999999  0.1438830000000000  6.0555300000000001
  2.7896800000000002  8.3931100000000001  3.6355200000000001
 -0.9363020000000000  4.9823700000000004  3.4479700000000002
  1.9361900000000001  5.4343000000000004  5.0690499999999998
  0.8605510000000000 -0.3057890000000000  6.4429600000000002
  1.9016100000000000  5.4707600000000003  1.6034299999999999
 -1.0419499999999999  2.3679500000000000 10.0932999999999993
 -0.1699200000000000  8.0784900000000004  5.3548999999999998
 -3.5797599999999998  7.6993000000000000  7.0869499999999999
 -0.8442350000000000 11.3825000000000003  2.0241400000000001
 -1.8440099999999999 -2.2630200000000000 11.0557999999999996
  1.6716500000000001  2.7069000000000001  3.5055399999999999
  4.3202100000000003  0.1368650000000000  4.2062299999999997
 -1.2646900000000001  2.3126300000000000  6.5961499999999997
  4.7428499999999998  1.6604900000000000  1.0888599999999999
  1.6416200000000001 -3.4186899999999998  9.2571399999999997
  2.7263299999999999 10.1905000000000001  0.5571140000000000
 -2.1021800000000002 -0.7443390000000000  7.9445600000000001
  1.5813900000000001 -0.2983130000000000 10.4275000000000002
  1.6672800000000001  3.0469100000000000  8.0727499999999992
 -1.0741600000000000  5.0506399999999996  8.1147200000000002
 -3.6402000000000001  6.1603700000000003 10.2568999999999999
 -0.7537460000000000  8.1577699999999993  0.9422920000000000
  8.8925900000000002  8.5586599999999997  3.7702700000000000
  5.2176900000000002  4.9024799999999997  3.4035000000000002
  8.1076400000000000  5.4211999999999998  5.0769599999999997
  7.0918999999999999 -0.3853860000000000  6.1520500000000000
  8.1428899999999995  5.5313699999999999  1.6611700000000000
  4.8565300000000002  2.1769300000000000  9.7105099999999993
  6.0216000000000003  8.2469000000000001  5.2957799999999997
  2.8198300000000001  7.6586499999999997  6.9508400000000004
  5.3004800000000003 11.2530000000000001  2.3415599999999999
  4.4638099999999996 -2.1962999999999999 10.7170000000000005
  7.8087999999999997  2.7027299999999999  3.3831400000000000
 10.3153000000000006  0.1072660000000000  4.6259300000000003
  4.8560800000000004  2.2706200000000001  6.3167600000000004
 10.6153999999999993  1.4746200000000000  1.0612400000000000
  7.8369999999999997 -3.3301799999999999  9.2083100000000009
  8.8474100000000000  9.9171399999999998  0.4256630000000000
  4.0923999999999996 -0.8503220000000000  7.4968300000000001
  7.8823200000000000 -0.2482290000000000 10.7147000000000006
  7.8007700000000000  2.8119100000000001  8.0151699999999995
  5.1961100000000000  4.9905900000000001  7.9751099999999999
  2.5149900000000001  6.4436600000000004 10.4101999999999997
  5.4734200000000000  8.1873299999999993  0.8320890000000000
