Li  P  S 
 1.0000000000000000
    12.3776759999999992    0.0000000000000000    0.0000000000000000
    -2.5953830000000000   12.3582859999999997    0.0000000000000000
    -2.9697610000000001   -4.5141049999999998   11.4634929999999997
 Li  P   S  
  28  12  44
Cartesian
  1.7257300000000000  8.0656400000000001  1.3914100000000000
  0.2436100000000000 -1.1971499999999999  8.7619799999999994
  1.2645800000000000  2.1127799999999999  5.8017700000000003
  3.0337499999999999  0.0753948000000000  0.1097420000000000
  2.8781699999999999  0.9965750000000000  8.6076700000000006
  2.2655599999999998 -2.4423900000000001  6.8614899999999999
  2.9224700000000001 10.7423999999999999  3.0060300000000000
 -2.0789100000000000  0.1604810000000000 10.7554999999999996
  0.1080550000000000  6.6225600000000000  9.7103599999999997
 -2.8122699999999998  4.0065299999999997  9.9845699999999997
  8.0628700000000002  0.2274010000000000  8.2884200000000003
  0.4869220000000000  1.1796800000000001  1.8347800000000001
 -0.8873010000000000  5.8245300000000002  5.8102400000000003
  9.9213900000000006  3.7959399999999999  1.8487400000000000
  7.7627800000000002  8.0496999999999996  1.6415100000000000
  5.5527499999999996 -2.7104800000000000  8.3596400000000006
  8.4039000000000001  1.6219200000000000  5.5201500000000001
  4.6309699999999996  7.3440500000000002 11.1065000000000005
 -4.7488700000000001  8.4656400000000005  8.9654900000000008
  3.9428600000000000  4.1889500000000002  1.3419700000000001
  6.8377299999999996 10.1610999999999994  4.0838799999999997
 -1.3369700000000000  7.5592300000000003  3.0841400000000001
  7.7303199999999999  5.4013099999999996  7.9514100000000001
  3.2257300000000000  4.1041800000000004  9.9100000000000001
  5.3035500000000004 -0.0234219000000000 10.7558000000000007
  7.2414600000000000  1.0852400000000000  1.3395100000000000
  4.5929000000000002  6.1684599999999996  5.6690199999999997
  5.2498800000000001  2.3684300000000000  3.6308400000000001
  0.9994760000000000  4.6548499999999997  3.2279900000000001
  1.7933300000000001  7.6120799999999997  5.1539900000000003
  2.4269699999999998 -2.1417899999999999 10.6869999999999994
 -1.5745800000000001 10.1296999999999997  0.5522610000000000
 -0.3080010000000000  3.1617799999999998  8.3624399999999994
 -1.0939099999999999  0.1636860000000000  6.4197600000000001
  7.1932799999999997  4.6584599999999998  3.2374399999999999
  7.9273600000000002  7.5225700000000000  5.3117099999999997
  8.3907000000000007 -2.2657900000000000 10.8541000000000007
  4.7518200000000004 10.0770999999999997  0.6780400000000000
  5.7962600000000002  3.0226400000000000  8.0834200000000003
  5.1657200000000003  0.1133390000000000  6.0370600000000003
  2.8286899999999999  8.3694500000000005  3.6187200000000002
 -1.0058100000000001  5.0256499999999997  3.4215300000000002
  1.8698500000000000  5.4391999999999996  5.0301799999999997
  0.8972320000000000 -0.2760130000000000  6.4420999999999999
  1.8202100000000001  5.4686899999999996  1.5486200000000001
 -0.9766570000000000  2.3401500000000000 10.0745000000000005
 -0.1864510000000000  8.1440699999999993  5.2332400000000003
 -3.4073699999999998  7.4923700000000002  7.0643099999999999
 -0.8749570000000000 11.4161000000000001  1.9738100000000001
 -1.9219700000000000 -2.3257400000000001 10.9910999999999994
  1.5980300000000001  2.7227100000000002  3.4641500000000001
  4.3026000000000000  0.1034240000000000  4.2042599999999997
 -1.2276000000000000  2.3283600000000000  6.5747600000000004
  4.7200899999999999  1.6968700000000001  1.0600000000000001
  1.5646700000000000 -3.3347400000000000  9.2230699999999999
  2.6803100000000000 10.2088000000000001  0.5507470000000000
 -2.0136200000000000 -0.7635160000000000  7.9699900000000001
  1.7343200000000001 -0.2157870000000000 10.4495000000000005
  1.7008700000000001  3.0990799999999998  8.0387699999999995
 -1.0995100000000000  5.0313299999999996  8.1428799999999999
 -3.7979400000000001  6.2825899999999999 10.1684000000000001
 -0.7497340000000000  8.2352699999999999  0.8238230000000000
  8.8480699999999999  8.5706500000000005  3.8279600000000000
  5.1804800000000002  4.8699899999999996  3.4236599999999999
  8.1374300000000002  5.3804800000000004  5.0265100000000000
  7.1084800000000001 -0.4245190000000000  6.1035700000000004
  8.0571300000000008  5.5300399999999996  1.6206400000000001
  4.8826400000000003  2.1732200000000002  9.6951099999999997
  6.0307500000000003  8.1466899999999995  5.4380899999999999
  2.7388699999999999  7.6200999999999999  6.9325700000000001
  5.2830199999999996 11.2295999999999996  2.3293200000000001
  4.4691700000000001 -2.2877100000000001 10.6785999999999994
  7.7792500000000002  2.6854800000000001  3.3522200000000000
 10.3363999999999994  0.0988468000000000  4.6417500000000000
  4.8690300000000004  2.2358799999999999  6.3008699999999997
 10.5448000000000004  1.5004999999999999  1.1168899999999999
  7.8223200000000004 -3.3947799999999999  9.2451699999999999
  8.7816399999999994  9.9302200000000003  0.4558230000000000
  4.1287300000000000 -0.8743830000000000  7.4980200000000004
  7.8175999999999997 -0.2726740000000000 10.6913000000000000
  7.8286300000000004  2.7505400000000000  7.9980799999999999
  5.2787699999999997  4.9715800000000003  7.9361199999999998
  2.4784099999999998  6.4156100000000000 10.3923000000000005
  5.4156300000000002  8.1698500000000003  0.8129840000000000
