Li  P  S 
 1.0000000000000000
    12.3776759999999992    0.0000000000000000    0.0000000000000000
    -2.5953830000000000   12.3582859999999997    0.0000000000000000
    -2.9697610000000001   -4.5141049999999998   11.4634929999999997
 Li  P   S  
  28  12  44
Cartesian
  1.7325325000000000  8.0635550000000009  1.3759150000000000
 -0.0256610000000000 -1.5296775000000002  9.0081150000000001
  1.2566299999999999  2.0753775000000001  5.8281100000000006
  2.9508299999999998  0.1305492000000000  0.1025675000000000
  2.8257675000000000  0.9528064999999999  8.6535550000000008
  2.2085674999999996 -2.4349349999999998  6.9095575000000009
  2.9290774999999991 10.7603249999999999  3.0037650000000005
 -2.0505000000000000  0.1783295000000004 10.8517250000000001
  0.1212910000000005  6.5840775000000011  9.7315250000000013
 -2.9718925000000005  3.8654850000000005 10.0160175000000002
  8.0426199999999977  0.3026860000000006  8.3144825000000004
  0.5137457500000000  1.1642675000000002  1.8698125000000001
 -0.6353722500000002  5.6917949999999999  5.8154974999999993
  9.9687974999999991  3.7647174999999993  1.8585800000000001
  7.8313674999999998  8.0324725000000008  1.5814725000000001
  5.5093625000000008 -2.6873874999999998  8.4112399999999994
  8.3941724999999998  1.6341074999999998  5.5469474999999999
  4.7133874999999996  7.3305049999999996 11.0438000000000009
  7.0639314999999971  9.0547500000000021  7.8100550000000002
  3.9552349999999987  4.1378675000000005  1.3534450000000000
  6.9166150000000002 10.1924499999999991  3.9429474999999998
 -1.2963950000000002  7.5271674999999991  3.1745825000000001
  7.6009975000000001  5.6372975000000016  8.1057899999999989
  3.2039875000000002  4.1130525000000002  9.9014050000000005
  5.3555775000000008  0.0228779250000003 10.7932249999999996
  7.2688274999999996  1.0894325000000000  1.3409499999999999
  4.6261174999999994  6.1751949999999995  5.6919700000000004
  5.2659599999999989  2.3927000000000005  3.6512700000000007
  1.0510265000000003  4.6383875000000003  3.2518250000000002
  1.8157474999999994  7.6187699999999996  5.1885500000000002
  2.4186074999999998 -2.1549074999999998 10.7041750000000011
 -1.5209324999999998 10.0908499999999997  0.5842387500000000
 -0.3366210000000002  3.1671200000000006  8.3762174999999992
 -1.1012975000000000  0.1561949999999999  6.4020600000000005
  7.2202349999999988  4.6703625000000004  3.2520724999999997
  7.9330450000000008  7.5532149999999998  5.2717575000000005
  8.4561374999999988 -2.2473250000000005 10.8361000000000001
  4.7836125000000003 10.0856499999999993  0.6883270000000000
  5.7752074999999996  3.0422150000000001  8.1024175000000014
  5.1505250000000000  0.1362470000000001  6.0509124999999999
  2.7994324999999995  8.3871950000000002  3.6313200000000001
 -0.9536789999999999  4.9931900000000002  3.4413600000000009
  1.9196049999999998  5.4355250000000002  5.0593325000000000
  0.8697212499999992 -0.2983449999999998  6.4427450000000004
  1.8812599999999999  5.4702425000000003  1.5897275000000002
 -1.0256267500000003  2.3609999999999998 10.0885999999999996
 -0.1740527500000003  8.0948849999999997  5.3244850000000001
 -3.5366624999999998  7.6475675000000001  7.0812900000000001
 -0.8519155000000005 11.3909000000000002  2.0115574999999999
 -1.8634999999999997 -2.2787000000000006 11.0396249999999991
  1.6532449999999999  2.7108524999999997  3.4951925000000004
  4.3158074999999991  0.1285047499999999  4.2057374999999997
 -1.2554175000000003  2.3165625000000003  6.5908024999999997
  4.7371599999999994  1.6695850000000003  1.0816450000000000
  1.6223824999999998 -3.3977024999999998  9.2486224999999997
  2.7148250000000003 10.1950749999999992  0.5555222500000000
 -2.0800400000000008 -0.7491332500000000  7.9509175000000001
  1.6196224999999993 -0.2776814999999997 10.4329999999999998
  1.6756774999999993  3.0599525000000010  8.0642549999999993
 -1.0804974999999999  5.0458124999999985  8.1217600000000001
 -3.6796350000000002  6.1909250000000000 10.2347749999999991
 -0.7527430000000003  8.1771449999999994  0.9126747500000000
  8.8814600000000006  8.5616575000000008  3.7846925000000007
  5.2083875000000006  4.8943574999999981  3.4085400000000008
  8.1150874999999996  5.4110200000000006  5.0643475000000002
  7.0960449999999975 -0.3951692499999999  6.1399300000000006
  8.1214499999999994  5.5310375000000001  1.6510375000000004
  4.8630574999999991  2.1760025000000001  9.7066599999999994
  6.0238875000000007  8.2218474999999991  5.3313574999999993
  2.7995899999999989  7.6490124999999995  6.9462725000000001
  5.2961150000000004 11.2471499999999995  2.3384999999999998
  4.4651499999999995 -2.2191524999999999 10.7073999999999998
  7.8014125000000005  2.6984174999999997  3.3754100000000005
 10.3205749999999998  0.1051612000000003  4.6298849999999998
  4.8593175000000004  2.2619350000000007  6.3127875000000007
 10.5977499999999978  1.4810900000000000  1.0751525000000000
  7.8333299999999992 -3.3463300000000000  9.2175250000000002
  8.8309674999999999  9.9204100000000004  0.4332030000000000
  4.1014824999999995 -0.8563372499999999  7.4971275000000004
  7.8661400000000006 -0.2543402500000001 10.7088500000000000
  7.8077350000000001  2.7965675000000001  8.0108974999999987
  5.2167750000000011  4.9858374999999997  7.9653624999999995
  2.5058449999999994  6.4366474999999994 10.4057250000000003
  5.4589724999999989  8.1829599999999996  0.8273127499999999
