Li  P  S 
 1.0000000000000000
    12.3776759999999992    0.0000000000000000    0.0000000000000000
    -2.5953830000000000   12.3582859999999997    0.0000000000000000
    -2.9697610000000001   -4.5141049999999998   11.4634929999999997
 Li  P   S  
  28  12  44
Cartesian
  1.6560537499999999  8.1399687499999995  1.5744825000000000
 -0.1485059999999997 -1.8573337500000000  9.0015800000000006
  1.3522087500000006  2.2123612500000003  5.8255575000000004
  2.8125099999999996  0.3047252500000000  0.0987917500000000
  2.2201762500000002  0.4534640000000001  8.3368000000000002
  2.2861924999999994 -1.7165587500000001  4.4970049999999997
  5.9998473749999990 -1.4365510000000004  3.7478312500000004
 -2.0769275000000000  0.1693081249999995 10.9991500000000002
  0.1210222249999993  6.5040162499999994  9.8610612499999988
 -2.8869000000000002  4.0206487500000003 10.1164375000000000
  8.4007699999999979  0.4755741250000001  8.2858687499999988
  0.0247486999999999  0.8437756250000003  2.5373512499999999
 -0.6962854999999999  5.7293487500000007  5.8416937500000010
 10.0635662500000009  3.8168950000000001  1.6145912499999999
  7.9493162499999999  7.8279037499999991  1.2717075000000000
  5.3544587499999992 -2.8084112500000002  8.5497949999999996
  7.5370537499999974  2.3650249999999997  5.8431912500000003
  4.7488462499999988  7.2418737500000008 10.8564624999999992
  6.8831237499999993  9.1958325000000016  7.3229850000000010
  3.7918149999999997  3.9989887499999996  1.3292087500000000
  7.5197099999999999 10.3038875000000001  3.2658287499999998
 -1.3070550000000003  7.3785900000000000  3.2353375000000000
  7.6408262499999999  5.6601000000000008  8.1785687500000002
  2.9761937499999993  3.8099987500000005 10.1083750000000006
  5.2825887499999995 -0.0994305624999997 10.3110374999999994
  7.1536312500000001  1.0709925000000000  1.5197050000000001
  4.7366162500000000  7.2958112500000007  3.3661462500000003
  4.8105912499999981  2.4310875000000007  3.6612662499999997
  1.0383912499999999  4.6939812500000011  3.3010937499999997
  1.7148324999999998  7.6758775000000012  5.3439424999999998
  2.2961787500000002 -2.3471000000000002 10.8026750000000007
 -1.5529287500000000 10.1341749999999990  0.7827332499999999
 -0.3764090000000007  3.0651950000000001  8.3581137499999993
 -0.9152510000000003  0.1516113749999998  6.1616737499999994
  7.1932212500000015  4.5671687500000004  3.1467612500000000
  7.8860675000000002  7.4288775000000014  5.2053887500000000
  8.5137812500000010 -2.2471875000000003 10.7333374999999993
  4.7475949999999987 10.0372000000000003  0.8426722499999999
  5.8228262499999994  3.2657675000000008  8.4424650000000003
  5.2610187499999990  0.3177849999999996  6.3744049999999994
  2.6857287499999991  8.5758037500000004  3.7897162500000001
 -0.9878339999999999  4.9208650000000009  3.4627924999999999
  1.8816712500000006  5.5041975000000019  5.0967675000000003
  1.0789987499999993 -0.2650602499999998  6.2482012500000002
  1.8576775000000001  5.5743712500000004  1.6491362500000000
 -1.1465362500000003  2.2809200000000001 10.0463374999999999
 -0.2663649999999997  8.1796450000000025  5.3290862499999996
 -3.5949924999999996  7.5660262500000002  7.0181350000000009
 -0.8140377500000002 11.4642656249999995  2.1856625000000003
 -1.8184662500000000 -2.2139437499999999 10.9217750000000002
  1.6997724999999995  2.7695950000000003  3.4801250000000006
  4.2958949999999989  0.0982967500000000  4.5793949999999999
 -1.2010600000000000  2.2864525000000002  6.5010349999999999
  4.6399512500000002  1.5855712500000003  1.2279987500000000
  1.5088549999999996 -3.6525287500000001  9.4423200000000005
  2.7087762500000001 10.1680750000000000  0.6958626250000000
 -1.9279712499999999 -0.8221452499999999  7.6438974999999996
  1.4637125000000000 -0.4888333749999998 10.4355250000000002
  1.6550287499999998  2.8691899999999997  8.1741912499999998
 -1.0587074999999999  4.9788399999999999  8.1508375000000015
 -3.8218287500000003  6.2705900000000003 10.4283874999999995
 -0.7954501250000003  8.2230225000000008  1.0356525000000001
  8.8818487500000014  8.3324975000000006  3.6754512500000001
  5.1797412499999993  4.8588800000000001  3.2474574999999999
  8.0725049999999978  5.2884774999999999  4.9764850000000003
  7.2256250000000000 -0.1201823750000001  6.1897012500000006
  8.1149975000000012  5.3381949999999998  1.5216737499999999
  4.9885349999999979  2.3451975000000003 10.0428625000000000
  6.0013299999999994  8.1392749999999996  5.2800262499999997
  2.6093137499999997  7.6328637500000003  7.1130499999999994
  5.3703587500000003 11.2351500000000009  2.4110087500000001
  4.3529925000000000 -2.3715762499999999 10.8222000000000005
  7.6966374999999987  2.6077787500000005  3.4383875000000002
 10.6541125000000001  0.1253289125000000  4.3247937499999995
  4.9699375000000003  2.4466800000000011  6.5784962500000006
 10.6172000000000004  1.4880674999999999  0.9571142500000002
  7.8459612500000011 -3.3418487500000000  9.1285924999999999
  8.7737800000000004 10.0918250000000018  0.8238261250000000
  4.3748162499999994 -0.6356723750000002  7.9308862500000004
  7.8879424999999985 -0.2577651250000005 10.5905874999999998
  7.8614474999999979  2.9844524999999993  8.2476500000000001
  5.2814799999999993  5.1615849999999996  8.2116337500000007
  2.5199312500000000  6.1833574999999987 10.5024375000000010
  5.4053000000000013  8.0955724999999994  1.1072575000000000
