Li  P  S 
 1.0000000000000000
    12.3776759999999992    0.0000000000000000    0.0000000000000000
    -2.5953830000000000   12.3582859999999997    0.0000000000000000
    -2.9697610000000001   -4.5141049999999998   11.4634929999999997
 Li  P   S  
  28  12  44
Cartesian
  1.6573350000000000  8.1266049999999996  1.5569899999999999
 -0.1523450000000001 -1.8668350000000002  9.0023400000000002
  1.3464249999999998  2.2009749999999992  5.8276699999999995
  2.8208799999999998  0.3022970000000001  0.1019064000000000
  2.2186050000000002  0.4501429999999998  8.3396699999999999
  2.2606899999999994 -1.7241850000000001  4.5034099999999997
  3.3125035000000005 10.9325679999999998  3.6198750000000008
 -2.0743999999999998  0.1645634999999996 10.9925999999999995
  0.1148133000000000  6.5027949999999990  9.8598649999999992
 -2.9041300000000003  4.0043550000000003 10.1105499999999999
  8.3840299999999992  0.4764785000000000  8.2875949999999996
  0.0175087000000001  0.8052845000000001  2.5297549999999998
 -0.6717640000000004  5.7206450000000002  5.8388850000000003
 10.0446550000000006  3.8015400000000001  1.6363750000000001
  7.9647250000000005  7.8405149999999990  1.2672500000000000
  5.3503249999999989 -2.8060049999999999  8.5480900000000002
  7.5343350000000004  2.3525600000000004  5.8379849999999998
  4.7417650000000000  7.2445849999999989 10.8604500000000002
  6.8715150000000005  9.2093800000000030  7.3250099999999998
  3.8055999999999996  4.0047550000000003  1.3258350000000001
  7.4624800000000002 10.2750500000000002  3.3269850000000005
 -1.2997200000000000  7.3701300000000005  3.2316700000000003
  7.6403449999999999  5.6743000000000006  8.1788249999999998
  2.9798949999999991  3.8154650000000001 10.1021000000000001
  5.2864250000000013 -0.0947477499999999 10.3059499999999993
  7.1673249999999999  1.0986240000000000  1.5294500000000000
  4.7463449999999989  7.3000350000000003  3.3630649999999997
  4.7254449999999997  2.4547900000000000  3.6888649999999998
  1.0478849999999997  4.6890250000000000  3.3017750000000001
  1.7246799999999995  7.6762400000000000  5.3346800000000005
  2.2984349999999996 -2.3460499999999995 10.8066999999999993
 -1.5483850000000001 10.1297999999999995  0.7793840000000001
 -0.3761670000000000  3.0662599999999998  8.3566149999999997
 -0.9232190000000001  0.1472755000000001  6.1696650000000002
  7.2007750000000001  4.5802149999999999  3.1522449999999997
  7.8970400000000014  7.4495300000000020  5.2049950000000003
  8.5101350000000000 -2.2481799999999996 10.7379499999999997
  4.7527199999999983 10.0451000000000015  0.8377410000000000
  5.8245650000000007  3.2689599999999990  8.4349300000000014
  5.2609149999999998  0.3160899999999999  6.3708099999999996
  2.6904550000000000  8.5670550000000016  3.7736950000000000
 -0.9779920000000000  4.9142200000000003  3.4655700000000000
  1.8930849999999995  5.5029599999999999  5.0949499999999999
  1.0703250000000000 -0.2748110000000000  6.2572150000000004
  1.8640099999999999  5.5642550000000011  1.6462550000000002
 -1.1476850000000005  2.2837900000000002 10.0454499999999989
 -0.2580110000000000  8.1739600000000010  5.3250549999999999
 -3.6001399999999997  7.5870649999999999  7.0255000000000001
 -0.7985460000000002 11.4537324999999992  2.1839800000000000
 -1.8221650000000000 -2.2191849999999995 10.9247999999999994
  1.7081199999999996  2.7635300000000016  3.4859200000000001
  4.2798999999999996  0.1014948000000001  4.5824499999999997
 -1.2016300000000002  2.2839999999999994  6.5003900000000012
  4.6499150000000000  1.5899549999999998  1.2357350000000000
  1.5110000000000001 -3.6540350000000004  9.4489000000000001
  2.7096650000000002 10.1670999999999996  0.6963545000000000
 -1.9361050000000000 -0.8159469999999998  7.6578700000000000
  1.4609599999999991 -0.4910334999999997 10.4351000000000003
  1.6549549999999993  2.8662799999999993  8.1729850000000006
 -1.0546300000000000  4.9801499999999992  8.1453000000000007
 -3.8101449999999999  6.2642199999999990 10.4268500000000017
 -0.8001254999999999  8.2136399999999998  1.0297300000000000
  8.9015550000000001  8.3487399999999994  3.6794250000000002
  5.1845150000000002  4.8631500000000001  3.2521700000000004
  8.0701399999999985  5.3097200000000004  4.9850899999999996
  7.2233200000000002 -0.1210385000000000  6.1863349999999997
  8.1179100000000002  5.3542799999999993  1.5260950000000000
  4.9931600000000005  2.3504399999999994 10.0378499999999988
  6.0158100000000001  8.1786399999999997  5.2594149999999997
  2.6254150000000007  7.6404250000000005  7.1006900000000002
  5.3610650000000009 11.2463000000000033  2.4067350000000003
  4.3550699999999996 -2.3653549999999997 10.8219999999999992
  7.7291900000000009  2.6289350000000007  3.4405600000000001
 10.6482500000000009  0.1111905500000001  4.3325250000000004
  4.9695899999999993  2.4461800000000005  6.5731650000000013
 10.6137000000000015  1.4842499999999998  0.9608630000000000
  7.8393850000000000 -3.3411450000000000  9.1324500000000004
  8.7805000000000000 10.1024999999999991  0.8284715000000000
  4.3742349999999988 -0.6336125000000000  7.9301050000000011
  7.8855899999999997 -0.2587395000000000 10.5976499999999998
  7.8628700000000000  2.9872500000000004  8.2374799999999997
  5.2823799999999999  5.1647599999999994  8.2041350000000008
  2.5165849999999996  6.1882399999999995 10.4939500000000017
  5.4171599999999991  8.1064600000000002  1.1054599999999999
