Li  P  S 
 1.0000000000000000
    12.3776759999999992    0.0000000000000000    0.0000000000000000
    -2.5953830000000000   12.3582859999999997    0.0000000000000000
    -2.9697610000000001   -4.5141049999999998   11.4634929999999997
 Li  P   S  
  28  12  44
Cartesian
  1.6586162499999995  8.1132412499999997  1.5394975000000000
 -0.1561840000000003 -1.8763362500000000  9.0030999999999999
  1.3406412499999998  2.1895887500000000  5.8297825000000003
  2.8292500000000000  0.2998687500000000  0.1050210500000000
  2.2170337500000001  0.4468220000000006  8.3425399999999996
  2.2351874999999999 -1.7318112500000000  4.5098149999999997
  3.2205426249999998 10.9434009999999997  3.4919187500000004
 -2.0718724999999996  0.1598188749999997 10.9860500000000005
  0.1086043749999999  6.5015737500000004  9.8586687499999996
 -2.9213600000000000  3.9880612500000003 10.1046624999999999
  8.3672899999999970  0.4773828750000000  8.2893212500000004
  0.0102687000000000  0.7667933749999999  2.5221587500000000
 -0.6472425000000005  5.7119412500000015  5.8360762500000005
 10.0257437500000002  3.7861850000000001  1.6581587500000001
  7.9801337500000011  7.8531262499999999  1.2627925000000000
  5.3461912499999986 -2.8035987499999999  8.5463850000000008
  7.5316162499999999  2.3400950000000003  5.8327787500000001
  4.7346837500000003  7.2472962499999998 10.8644375000000011
  6.8599062499999999  9.2229274999999991  7.3270349999999995
  3.8193849999999991  4.0105212500000000  1.3224612499999999
  7.4052499999999997 10.2462125000000004  3.3881412500000003
 -1.2923849999999999  7.3616700000000002  3.2280025000000006
  7.6398637500000000  5.6884999999999994  8.1790812499999994
  2.9835962499999988  3.8209312500000006 10.0958249999999996
  5.2902612500000004 -0.0900649375000002 10.3008625000000009
  7.1810187499999989  1.1262555000000003  1.5391949999999999
  4.7560737499999988  7.3042587500000016  3.3599837500000005
  4.6402987499999995  2.4784924999999998  3.7164637500000004
  1.0573787499999998  4.6840687499999998  3.3024562500000001
  1.7345274999999998  7.6766025000000004  5.3254175000000004
  2.3006912500000003 -2.3449999999999998 10.8107249999999997
 -1.5438412499999998 10.1254249999999999  0.7760347500000000
 -0.3759250000000009  3.0673249999999999  8.3551162500000000
 -0.9311870000000001  0.1429396250000000  6.1776562500000010
  7.2083287499999988  4.5932612499999994  3.1577287500000000
  7.9080124999999999  7.4701824999999999  5.2046012500000005
  8.5064887500000008 -2.2491724999999994 10.7425625000000000
  4.7578450000000005 10.0530000000000008  0.8328097500000000
  5.8263037500000010  3.2721525000000016  8.4273950000000006
  5.2608112500000006  0.3143950000000001  6.3672149999999998
  2.6951812500000001  8.5583062499999976  3.7576737499999999
 -0.9681500000000000  4.9075750000000005  3.4683475000000001
  1.9044987500000001  5.5017225000000005  5.0931324999999994
  1.0616512499999993 -0.2845617499999997  6.2662287499999998
  1.8703425000000000  5.5541387500000008  1.6433737500000001
 -1.1488337499999999  2.2866599999999999 10.0445624999999996
 -0.2496570000000000  8.1682749999999995  5.3210237500000002
 -3.6052874999999998  7.6081037499999997  7.0328650000000001
 -0.7830542500000002 11.4431993750000007  2.1822974999999998
 -1.8258637499999999 -2.2244262499999996 10.9278249999999986
  1.7164674999999991  2.7574649999999998  3.4917150000000001
  4.2639050000000012  0.1046928500000001  4.5855049999999995
 -1.2022000000000002  2.2815474999999998  6.4997450000000008
  4.6598787499999998  1.5943387499999999  1.2434712500000000
  1.5131449999999993 -3.6555412500000002  9.4554799999999997
  2.7105537500000003 10.1661249999999992  0.6968463750000000
 -1.9442387500000000 -0.8097487500000005  7.6718425000000012
  1.4582075000000003 -0.4932336249999996 10.4346750000000004
  1.6548812499999994  2.8633700000000002  8.1717787499999996
 -1.0505525000000000  4.9814600000000011  8.1397624999999998
 -3.7984612499999999  6.2578500000000004 10.4253125000000004
 -0.8048008750000000  8.2042575000000006  1.0238075000000000
  8.9212612500000006  8.3649825000000000  3.6833987500000003
  5.1892887500000002  4.8674200000000001  3.2568825000000001
  8.0677749999999975  5.3309625000000000  4.9936950000000007
  7.2210149999999995 -0.1218946250000000  6.1829687499999997
  8.1208224999999992  5.3703649999999996  1.5305162500000000
  4.9977850000000013  2.3556824999999999 10.0328374999999994
  6.0302899999999999  8.2180049999999998  5.2388037499999998
  2.6415162499999996  7.6479862499999989  7.0883300000000000
  5.3517712499999996 11.2574500000000004  2.4024612500000000
  4.3571475000000000 -2.3591337499999998 10.8217999999999996
  7.7617425000000004  2.6500912500000000  3.4427325000000004
 10.6423874999999981  0.0970521875000001  4.3402562500000004
  4.9692425000000000  2.4456799999999999  6.5678337500000010
 10.6101999999999972  1.4804325000000005  0.9646117500000000
  7.8328087499999990 -3.3404412500000000  9.1363075000000009
  8.7872199999999996 10.1131750000000000  0.8331168750000000
  4.3736537499999999 -0.6315526249999999  7.9293237500000000
  7.8832374999999999 -0.2597138749999994 10.6047124999999998
  7.8642925000000004  2.9900474999999997  8.2273099999999992
  5.2832800000000004  5.1679350000000008  8.1966362499999992
  2.5132387499999993  6.1931225000000003 10.4854625000000006
  5.4290199999999986  8.1173475000000010  1.1036625000000000
