Li  P  S 
 1.0000000000000000
    12.3776759999999992    0.0000000000000000    0.0000000000000000
    -2.5953830000000000   12.3582859999999997    0.0000000000000000
    -2.9697610000000001   -4.5141049999999998   11.4634929999999997
 Li  P   S  
  28  12  44
Cartesian
  1.6598974999999991  8.0998774999999998  1.5220050000000003
 -0.1600229999999999 -1.8858374999999998  9.0038599999999995
  1.3348574999999996  2.1782024999999998  5.8318950000000003
  2.8376199999999998  0.2974405000000000  0.1081357000000000
  2.2154625000000006  0.4435009999999999  8.3454100000000011
  2.2096849999999999 -1.7394375000000002  4.5162199999999997
  3.1285817499999995 10.9542339999999978  3.3639625000000004
 -2.0693450000000002  0.1550742499999999 10.9794999999999998
  0.1023954500000004  6.5003525000000009  9.8574725000000019
 -2.9385900000000000  3.9717675000000003 10.0987749999999998
  8.3505499999999984  0.4782872500000001  8.2910474999999995
  0.0030287000000000  0.7283022499999999  2.5145624999999998
 -0.6227210000000003  5.7032375000000011  5.8332674999999998
 10.0068325000000016  3.7708300000000001  1.6799425000000001
  7.9955424999999982  7.8657374999999998  1.2583350000000000
  5.3420574999999975 -2.8011925000000000  8.5446799999999996
  7.5288974999999994  2.3276300000000001  5.8275725000000005
  4.7276024999999997  7.2500075000000006 10.8684250000000002
  6.8482975000000001  9.2364749999999987  7.3290600000000010
  3.8331700000000004  4.0162874999999998  1.3190875000000000
  7.3480199999999991 10.2173749999999988  3.4492975000000001
 -1.2850500000000002  7.3532099999999998  3.2243350000000000
  7.6393825000000000  5.7027000000000001  8.1793374999999990
  2.9872974999999995  3.8263975000000001 10.0895499999999991
  5.2940974999999995 -0.0853821250000000 10.2957750000000008
  7.1947124999999996  1.1538869999999999  1.5489400000000000
  4.7658024999999995  7.3084825000000002  3.3569024999999999
  4.5551525000000002  2.5021949999999999  3.7440625000000005
  1.0668724999999994  4.6791125000000005  3.3031375000000001
  1.7443749999999998  7.6769649999999992  5.3161550000000002
  2.3029474999999988 -2.3439499999999995 10.8147500000000019
 -1.5392975000000000 10.1210500000000003  0.7726854999999999
 -0.3756830000000004  3.0683899999999995  8.3536174999999986
 -0.9391550000000000  0.1386037499999999  6.1856475000000000
  7.2158824999999993  4.6063074999999989  3.1632124999999998
  7.9189850000000002  7.4908350000000006  5.2042075000000008
  8.5028424999999999 -2.2501650000000000 10.7471749999999986
  4.7629700000000001 10.0609000000000002  0.8278785000000000
  5.8280425000000005  3.2753450000000011  8.4198599999999999
  5.2607074999999996  0.3127000000000005  6.3636199999999992
  2.6999075000000010  8.5495574999999988  3.7416524999999998
 -0.9583080000000003  4.9009300000000016  3.4711250000000002
  1.9159125000000001  5.5004849999999994  5.0913150000000007
  1.0529774999999997 -0.2943124999999999  6.2752425000000001
  1.8766750000000001  5.5440225000000005  1.6404925000000001
 -1.1499824999999997  2.2895300000000005 10.0436750000000004
 -0.2413030000000006  8.1625899999999998  5.3169924999999996
 -3.6104349999999994  7.6291425000000004  7.0402300000000011
 -0.7675625000000003 11.4326662500000005  2.1806150000000000
 -1.8295624999999998 -2.2296674999999992 10.9308499999999995
  1.7248149999999998  2.7513999999999994  3.4975100000000006
  4.2479100000000001  0.1078909000000002  4.5885599999999993
 -1.2027700000000001  2.2790950000000003  6.4991000000000003
  4.6698424999999997  1.5987225000000000  1.2512075000000000
  1.5152900000000005 -3.6570475000000000  9.4620600000000010
  2.7114425000000004 10.1651500000000006  0.6973382500000000
 -1.9523725000000001 -0.8035505000000002  7.6858149999999998
  1.4554550000000008 -0.4954337499999999 10.4342500000000005
  1.6548074999999998  2.8604600000000002  8.1705725000000005
 -1.0464750000000000  4.9827700000000004  8.1342250000000007
 -3.7867774999999999  6.2514799999999990 10.4237749999999991
 -0.8094762500000003  8.1948749999999997  1.0178850000000002
  8.9409674999999993  8.3812250000000006  3.6873725000000004
  5.1940624999999994  4.8716900000000001  3.2615949999999998
  8.0654099999999982  5.3522049999999997  5.0023000000000000
  7.2187100000000006 -0.1227507499999999  6.1796024999999997
  8.1237349999999999  5.3864500000000000  1.5349374999999998
  5.0024100000000002  2.3609249999999995 10.0278250000000000
  6.0447700000000006  8.2573699999999999  5.2181924999999998
  2.6576174999999993  7.6555474999999999  7.0759699999999999
  5.3424774999999993 11.2686000000000028  2.3981875000000001
  4.3592249999999995 -2.3529124999999995 10.8216000000000001
  7.7942949999999991  2.6712475000000002  3.4449050000000003
 10.6365250000000007  0.0829138249999998  4.3479875000000003
  4.9688949999999998  2.4451799999999992  6.5625025000000008
 10.6067000000000000  1.4766150000000000  0.9683605000000001
  7.8262325000000006 -3.3397375000000000  9.1401649999999997
  8.7939399999999992 10.1238500000000027  0.8377622499999999
  4.3730724999999993 -0.6294927499999993  7.9285425000000016
  7.8808850000000001 -0.2606882499999994 10.6117749999999997
  7.8657149999999998  2.9928450000000004  8.2171400000000006
  5.2841799999999992  5.1711099999999997  8.1891374999999993
  2.5098924999999990  6.1980050000000002 10.4769750000000013
  5.4408799999999991  8.1282350000000001  1.1018650000000001
