Li  P  S 
 1.0000000000000000
    12.3776759999999992    0.0000000000000000    0.0000000000000000
    -2.5953830000000000   12.3582859999999997    0.0000000000000000
    -2.9697610000000001   -4.5141049999999998   11.4634929999999997
 Li  P   S  
  28  12  44
Cartesian
  1.6534912499999996  8.1666962499999993  1.6094675000000001
 -0.1408280000000000 -1.8383312499999998  9.0000599999999995
  1.3637762499999997  2.2351337499999997  5.8213324999999996
  2.7957700000000001  0.3095817500000000  0.0925624500000000
  2.2233187499999998  0.4601060000000001  8.3310599999999990
  2.3371974999999998 -1.7013062500000000  4.4841949999999997
  6.1837691249999995 -1.4582170000000001  4.0037437499999999
 -2.0819825000000001  0.1787973750000001 11.0122499999999999
  0.1334400750000004  6.5064587500000011  9.8634537499999997
 -2.8524400000000001  4.0532362500000003 10.1282125000000001
  8.4342499999999987  0.4737653750000005  8.2824162500000007
  0.0392286999999999  0.9207578750000002  2.5525437499999999
 -0.7453284999999999  5.7467562499999998  5.8473112500000006
 10.1013887499999999  3.8476050000000002  1.5710237499999999
  7.9184987499999995  7.8026812500000009  1.2806225000000000
  5.3627262499999997 -2.8132237500000001  8.5532050000000002
  7.5424912500000003  2.3899550000000001  5.8536037500000004
  4.7630087500000000  7.2364512500000018 10.8484875000000027
  6.9063412499999997  9.1687375000000007  7.3189350000000006
  3.7642450000000003  3.9874562500000001  1.3359562500000002
  7.6341700000000001 10.3615624999999998  3.1435162500000002
 -1.3217249999999996  7.3955100000000007  3.2426725000000003
  7.6417887499999990  5.6316999999999995  8.1780562499999991
  2.9687912500000002  3.7990662500000001 10.1209249999999997
  5.2749162499999986 -0.1087961874999997 10.3212124999999997
  7.1262437499999995  1.0157295000000002  1.5002150000000001
  4.7171587499999994  7.2873637500000008  3.3723087499999997
  4.9808837499999994  2.3836824999999999  3.6060687499999999
  1.0194037500000004  4.7038937500000007  3.2997312499999998
  1.6951374999999997  7.6751524999999994  5.3624675000000002
  2.2916662500000000 -2.3491999999999997 10.7946249999999999
 -1.5620162499999999 10.1429250000000000  0.7894317500000000
 -0.3768930000000005  3.0630649999999999  8.3611112500000004
 -0.8993149999999999  0.1602831249999999  6.1456912500000005
  7.1781137499999996  4.5410762499999997  3.1357937500000004
  7.8641224999999997  7.3875724999999992  5.2061762500000004
  8.5210737499999993 -2.2452025000000000 10.7241125000000004
  4.7373449999999995 10.0213999999999999  0.8525347500000000
  5.8193487499999978  3.2593825000000001  8.4575350000000000
  5.2612262499999991  0.3211750000000003  6.3815949999999999
  2.6762762499999990  8.5933012500000014  3.8217587499999999
 -1.0075180000000004  4.9341550000000005  3.4572375000000006
  1.8588437499999997  5.5066725000000014  5.1004024999999995
  1.0963462499999999 -0.2455587500000000  6.2301737500000005
  1.8450124999999997  5.5946037500000001  1.6548987500000001
 -1.1442387499999995  2.2751800000000011 10.0481125000000002
 -0.2830730000000005  8.1910150000000002  5.3371487499999999
 -3.5846974999999999  7.5239487499999997  7.0034049999999999
 -0.8450212500000001 11.4853318750000017  2.1890274999999999
 -1.8110687500000002 -2.2034612499999997 10.9157249999999983
  1.6830774999999998  2.7817250000000007  3.4685350000000001
  4.3278849999999993  0.0919006499999999  4.5732849999999994
 -1.1999199999999999  2.2913575000000006  6.5023250000000008
  4.6200237500000005  1.5768037499999996  1.2125262500000000
  1.5045650000000002 -3.6495162500000000  9.4291599999999995
  2.7069987500000003 10.1700250000000008  0.6948788750000000
 -1.9117037500000000 -0.8345417500000000  7.6159525000000006
  1.4692175000000003 -0.4844331250000000 10.4363750000000017
  1.6551762499999991  2.8750099999999996  8.1766037499999999
 -1.0668624999999998  4.9762200000000014  8.1619124999999997
 -3.8451962500000003  6.2833299999999994 10.4314625000000003
 -0.7860993750000000  8.2417875000000009  1.0474975000000000
  8.8424362499999987  8.3000125000000011  3.6675037500000003
  5.1701937500000001  4.8503400000000001  3.2380325000000001
  8.0772349999999999  5.2459925000000007  4.9592749999999999
  7.2302350000000004 -0.1184701250000001  6.1964337499999997
  8.1091724999999997  5.3060250000000000  1.5128312500000001
  4.9792849999999982  2.3347125000000002 10.0528875000000006
  5.9723699999999997  8.0605449999999994  5.3212487499999996
  2.5771112500000015  7.6177412500000008  7.1377699999999997
  5.3889462500000000 11.2128500000000013  2.4195562500000003
  4.3488375000000001 -2.3840187499999996 10.8226000000000013
  7.6315325000000005  2.5654662500000001  3.4340425000000003
 10.6658375000000003  0.1536056375000001  4.3093312499999996
  4.9706324999999998  2.4476799999999992  6.5891587500000011
 10.6242000000000001  1.4957024999999999  0.9496167500000000
  7.8591137499999970 -3.3432562500000000  9.1208775000000006
  8.7603399999999993 10.0704750000000001  0.8145353750000001
  4.3759787499999998 -0.6397921249999999  7.9324487499999998
  7.8926474999999980 -0.2558163750000002 10.5764624999999999
  7.8586024999999973  2.9788575000000002  8.2679899999999993
  5.2796800000000008  5.1552349999999993  8.2266312500000005
  2.5266237499999993  6.1735924999999989 10.5194125000000014
  5.3815799999999987  8.0737975000000013  1.1108525000000000
