Li  P  S 
 1.0000000000000000
    12.3776759999999992    0.0000000000000000    0.0000000000000000
    -2.5953830000000000   12.3582859999999997    0.0000000000000000
    -2.9697610000000001   -4.5141049999999998   11.4634929999999997
 Li  P   S  
  28  12  44
Cartesian
  1.6624600000000000  8.0731500000000000  1.4870200000000000
 -0.1677010000000000 -1.9048400000000001  9.0053800000000006
  1.3232900000000001  2.1554300000000000  5.8361200000000002
  2.8543599999999998  0.2925840000000000  0.1143650000000000
  2.2123200000000001  0.4368590000000000  8.3511500000000005
  2.1586799999999999 -1.7546900000000001  4.5290299999999997
  2.9446599999999998 10.9758999999999993  3.1080500000000000
 -2.0642900000000002  0.1455850000000000 10.9664000000000001
  0.0899776000000000  6.4979100000000001  9.8550799999999992
 -2.9730500000000002  3.9391799999999999 10.0869999999999997
  8.3170699999999993  0.4800960000000000  8.2944999999999993
 -0.0114513000000000  0.6513200000000000  2.4993699999999999
 -0.5736780000000000  5.6858300000000002  5.8276500000000002
  9.9690100000000008  3.7401200000000001  1.7235100000000001
  8.0263600000000004  7.8909599999999998  1.2494200000000000
  5.3337899999999996 -2.7963800000000001  8.5412700000000008
  7.5234600000000000  2.3027000000000002  5.8171600000000003
  4.7134400000000003  7.2554299999999996 10.8764000000000003
  6.8250799999999998  9.2635699999999996  7.3331099999999996
  3.8607399999999998  4.0278200000000002  1.3123400000000001
  7.2335599999999998 10.1597000000000008  3.5716100000000002
 -1.2703800000000001  7.3362900000000000  3.2170000000000001
  7.6384200000000000  5.7310999999999996  8.1798500000000001
  2.9946999999999999  3.8373300000000001 10.0770000000000000
  5.3017700000000003 -0.0760165000000000 10.2856000000000005
  7.2221000000000002  1.2091499999999999  1.5684300000000000
  4.7852600000000001  7.3169300000000002  3.3507400000000001
  4.3848599999999998  2.5495999999999999  3.7992599999999999
  1.0858600000000000  4.6692000000000000  3.3045000000000000
  1.7640700000000000  7.6776900000000001  5.2976299999999998
  2.3074599999999998 -2.3418500000000000 10.8228000000000009
 -1.5302100000000001 10.1122999999999994  0.7659870000000000
 -0.3751990000000000  3.0705200000000001  8.3506199999999993
 -0.9550910000000000  0.1299320000000000  6.2016299999999998
  7.2309900000000003  4.6323999999999996  3.1741799999999998
  7.9409299999999998  7.5321400000000001  5.2034200000000004
  8.4955499999999997 -2.2521499999999999 10.7563999999999993
  4.7732200000000002 10.0767000000000007  0.8180160000000000
  5.8315200000000003  3.2817300000000000  8.4047900000000002
  5.2605000000000004  0.3093100000000000  6.3564299999999996
  2.7093600000000002  8.5320599999999995  3.7096100000000001
 -0.9386240000000000  4.8876400000000002  3.4766800000000000
  1.9387399999999999  5.4980099999999998  5.0876799999999998
  1.0356300000000001 -0.3138140000000000  6.2932699999999997
  1.8893400000000000  5.5237900000000000  1.6347300000000000
 -1.1522800000000000  2.2952699999999999 10.0419000000000000
 -0.2245950000000000  8.1512200000000004  5.3089300000000001
 -3.6207300000000000  7.6712199999999999  7.0549600000000003
 -0.7365790000000000 11.4116000000000000  2.1772499999999999
 -1.8369599999999999 -2.2401499999999999 10.9368999999999996
  1.7415099999999999  2.7392699999999999  3.5091000000000001
  4.2159199999999997  0.1142870000000000  4.5946699999999998
 -1.2039100000000000  2.2741899999999999  6.4978100000000003
  4.6897700000000002  1.6074900000000001  1.2666800000000000
  1.5195799999999999 -3.6600600000000001  9.4752200000000002
  2.7132200000000002 10.1631999999999998  0.6983220000000000
 -1.9686399999999999 -0.7911540000000000  7.7137599999999997
  1.4499500000000001 -0.4998340000000000 10.4334000000000007
  1.6546600000000000  2.8546399999999998  8.1681600000000003
 -1.0383199999999999  4.9853899999999998  8.1231500000000008
 -3.7634099999999999  6.2387400000000000 10.4207000000000001
 -0.8188270000000000  8.1761099999999995  1.0060400000000000
  8.9803800000000003  8.4137100000000000  3.6953200000000002
  5.2036100000000003  4.8802300000000001  3.2710200000000000
  8.0606799999999996  5.3946899999999998  5.0195100000000004
  7.2141000000000002 -0.1244630000000000  6.1728699999999996
  8.1295599999999997  5.4186199999999998  1.5437799999999999
  5.0116600000000000  2.3714100000000000 10.0177999999999994
  6.0737300000000003  8.3361000000000001  5.1769699999999998
  2.6898200000000001  7.6706700000000003  7.0512499999999996
  5.3238899999999996 11.2909000000000006  2.3896400000000000
  4.3633800000000003 -2.3404699999999998 10.8211999999999993
  7.8593999999999999  2.7135600000000002  3.4492500000000001
 10.6248000000000005  0.0546371000000000  4.3634500000000003
  4.9682000000000004  2.4441799999999998  6.5518400000000003
 10.5997000000000003  1.4689800000000000  0.9758580000000000
  7.8130800000000002 -3.3383300000000000  9.1478800000000007
  8.8073800000000002 10.1452000000000009  0.8470529999999999
  4.3719099999999997 -0.6253730000000000  7.9269800000000004
  7.8761799999999997 -0.2626370000000000 10.6258999999999997
  7.8685600000000004  2.9984400000000000  8.1967999999999996
  5.2859800000000003  5.1774600000000000  8.1741399999999995
  2.5032000000000001  6.2077700000000000 10.4600000000000009
  5.4645999999999999  8.1500100000000000  1.0982700000000001
