Li  P  S 
 1.0000000000000000
    12.3776759999999992    0.0000000000000000    0.0000000000000000
    -2.5953830000000000   12.3582859999999997    0.0000000000000000
    -2.9697610000000001   -4.5141049999999998   11.4634929999999997
 Li  P   S  
  28  12  44
Cartesian
  1.6547724999999998  8.1533325000000012  1.5919749999999999
 -0.1446669999999999 -1.8478325000000002  9.0008200000000009
  1.3579925000000002  2.2237474999999995  5.8234449999999987
  2.8041399999999999  0.3071535000000000  0.0956771000000000
  2.2217474999999998  0.4567849999999999  8.3339299999999987
  2.3116949999999998 -1.7089325000000000  4.4905999999999997
  6.0918082499999997 -1.4473840000000002  3.8757875000000004
 -2.0794549999999998  0.1740527500000007 11.0057000000000009
  0.1272311499999997  6.5052375000000007  9.8622574999999983
 -2.8696700000000002  4.0369424999999994 10.1223250000000000
  8.4175100000000000  0.4746697500000001  8.2841424999999997
  0.0319886999999998  0.8822667500000001  2.5449475000000001
 -0.7208069999999996  5.7380524999999993  5.8445025000000017
 10.0824774999999978  3.8322500000000002  1.5928074999999999
  7.9339075000000001  7.8152925000000009  1.2761650000000000
  5.3585925000000003 -2.8108175000000002  8.5515000000000008
  7.5397724999999998  2.3774900000000008  5.8483974999999999
  4.7559274999999994  7.2391625000000008 10.8524750000000001
  6.8947324999999990  9.1822850000000003  7.3209599999999995
  3.7780300000000002  3.9932224999999995  1.3325825000000000
  7.5769400000000005 10.3327250000000017  3.2046725000000000
 -1.3143899999999999  7.3870500000000003  3.2390050000000006
  7.6413074999999981  5.6458999999999993  8.1783125000000005
  2.9724924999999991  3.8045325000000005 10.1146500000000010
  5.2787525000000004 -0.1041133749999995 10.3161249999999995
  7.1399374999999994  1.0433610000000000  1.5099600000000000
  4.7268874999999992  7.2915875000000003  3.3692275000000000
  4.8957374999999992  2.4073849999999997  3.6336675000000001
  1.0288975000000002  4.6989374999999995  3.3004125000000002
  1.7049850000000002  7.6755149999999999  5.3532050000000000
  2.2939225000000003 -2.3481499999999995 10.7986500000000003
 -1.5574724999999998 10.1385500000000004  0.7860825000000001
 -0.3766510000000005  3.0641300000000005  8.3596125000000008
 -0.9072830000000001  0.1559472499999999  6.1536824999999995
  7.1856675000000001  4.5541225000000010  3.1412775000000002
  7.8750949999999982  7.4082250000000025  5.2057824999999998
  8.5174275000000002 -2.2461949999999997 10.7287250000000007
  4.7424700000000000 10.0293000000000010  0.8476035000000000
  5.8210875000000009  3.2625750000000000  8.4500000000000011
  5.2611224999999999  0.3194800000000002  6.3780000000000001
  2.6810025000000000  8.5845525000000009  3.8057375000000007
 -0.9976760000000000  4.9275100000000007  3.4600150000000007
  1.8702574999999995  5.5054350000000012  5.0985849999999999
  1.0876725000000000 -0.2553095000000001  6.2391875000000008
  1.8513449999999994  5.5844874999999998  1.6520174999999999
 -1.1453875000000000  2.2780499999999995 10.0472249999999992
 -0.2747190000000003  8.1853300000000004  5.3331175000000002
 -3.5898449999999995  7.5449874999999995  7.0107700000000008
 -0.8295295000000001 11.4747987499999997  2.1873450000000001
 -1.8147675000000001 -2.2087025000000007 10.9187499999999993
  1.6914250000000002  2.7756600000000002  3.4743300000000001
  4.3118900000000000  0.0950987000000001  4.5763400000000001
 -1.2004900000000001  2.2889050000000002  6.5016800000000003
  4.6299874999999995  1.5811875000000002  1.2202625000000000
  1.5067100000000000 -3.6510225000000003  9.4357399999999991
  2.7078875000000004 10.1690499999999986  0.6953707499999999
 -1.9198374999999999 -0.8283434999999998  7.6299250000000001
  1.4664649999999997 -0.4866332500000004 10.4359500000000001
  1.6551024999999993  2.8721000000000001  8.1753974999999990
 -1.0627850000000003  4.9775300000000025  8.1563750000000006
 -3.8335124999999999  6.2769599999999999 10.4299250000000008
 -0.7907747499999999  8.2324050000000000  1.0415749999999999
  8.8621425000000009  8.3162550000000000  3.6714775000000004
  5.1749674999999993  4.8546100000000001  3.2427450000000002
  8.0748699999999989  5.2672350000000003  4.9678800000000001
  7.2279300000000006 -0.1193262500000001  6.1930674999999997
  8.1120849999999969  5.3221099999999995  1.5172525000000003
  4.9839099999999990  2.3399550000000002 10.0478749999999994
  5.9868500000000013  8.0999099999999995  5.3006374999999997
  2.5932124999999990  7.6253024999999992  7.1254099999999996
  5.3796525000000006 11.2240000000000020  2.4152825000000000
  4.3509149999999996 -2.3777975000000002 10.8224000000000000
  7.6640850000000009  2.5866224999999994  3.4362149999999998
 10.6599749999999993  0.1394672749999998  4.3170624999999996
  4.9702849999999996  2.4471799999999999  6.5838274999999999
 10.6207000000000011  1.4918849999999999  0.9533655000000001
  7.8525374999999995 -3.3425525000000000  9.1247350000000012
  8.7670600000000007 10.0811499999999992  0.8191807500000000
  4.3753974999999992 -0.6377322499999999  7.9316674999999996
  7.8902950000000001 -0.2567907499999997 10.5835249999999998
  7.8600249999999994  2.9816550000000004  8.2578199999999988
  5.2805799999999987  5.1584099999999991  8.2191325000000006
  2.5232774999999985  6.1784749999999988 10.5109250000000003
  5.3934399999999991  8.0846850000000003  1.1090549999999999
