Li  P  S 
 1.0000000000000000
    12.3776759999999992    0.0000000000000000    0.0000000000000000
    -2.5953830000000000   12.3582859999999997    0.0000000000000000
    -2.9697610000000001   -4.5141049999999998   11.4634929999999997
 Li  P   S  
  28  12  44
Cartesian
  1.6522100000000000  8.1800599999999992  1.6269600000000000
 -0.1369890000000000 -1.8288300000000000  8.9992999999999999
  1.3695600000000001  2.2465199999999999  5.8192199999999996
  2.7873999999999999  0.3120100000000000  0.0894478000000000
  2.2248899999999998  0.4634270000000000  8.3281899999999993
  2.3626999999999998 -1.6936800000000001  4.4777899999999997
  6.2757300000000003 -1.4690500000000000  4.1317000000000004
 -2.0845099999999999  0.1835420000000000 11.0188000000000006
  0.1396490000000000  6.5076799999999997  9.8646499999999993
 -2.8352100000000000  4.0695300000000003 10.1341000000000001
  8.4509899999999991  0.4728610000000000  8.2806899999999999
  0.0464687000000000  0.9592490000000000  2.5601400000000001
 -0.7698500000000000  5.7554600000000002  5.8501200000000004
 10.1203000000000003  3.8629600000000002  1.5492400000000000
  7.9030899999999997  7.7900700000000001  1.2850800000000000
  5.3668600000000000 -2.8156300000000001  8.5549099999999996
  7.5452100000000000  2.4024200000000002  5.8588100000000001
  4.7700899999999997  7.2337400000000001 10.8445000000000000
  6.9179500000000003  9.1551899999999993  7.3169100000000000
  3.7504599999999999  3.9816900000000000  1.3393299999999999
  7.6913999999999998 10.3903999999999996  3.0823600000000000
 -1.3290599999999999  7.4039700000000002  3.2463400000000000
  7.6422699999999999  5.6174999999999997  8.1777999999999995
  2.9650900000000000  3.7936000000000001 10.1272000000000002
  5.2710800000000004 -0.1134790000000000 10.3262999999999998
  7.1125499999999997  0.9880980000000000  1.4904700000000000
  4.7074299999999996  7.2831400000000004  3.3753899999999999
  5.0660299999999996  2.3599800000000002  3.5784699999999998
  1.0099100000000001  4.7088500000000000  3.2990499999999998
  1.6852900000000000  7.6747899999999998  5.3717300000000003
  2.2894100000000002 -2.3502500000000000 10.7905999999999995
 -1.5665600000000000 10.1472999999999995  0.7927810000000000
 -0.3771350000000000  3.0619999999999998  8.3626100000000001
 -0.8913470000000000  0.1646190000000000  6.1376999999999997
  7.1705600000000000  4.5280300000000002  3.1303100000000001
  7.8531500000000003  7.3669200000000004  5.2065700000000001
  8.5247200000000003 -2.2442099999999998 10.7195000000000000
  4.7322199999999999 10.0135000000000005  0.8574660000000000
  5.8176100000000002  3.2561900000000001  8.4650700000000008
  5.2613300000000001  0.3228700000000000  6.3851899999999997
  2.6715499999999999  8.6020500000000002  3.8377800000000000
 -1.0173600000000000  4.9408000000000003  3.4544600000000001
  1.8474299999999999  5.5079099999999999  5.1022200000000000
  1.1050199999999999 -0.2358080000000000  6.2211600000000002
  1.8386800000000001  5.6047200000000004  1.6577800000000000
 -1.1430899999999999  2.2723100000000001 10.0489999999999995
 -0.2914270000000000  8.1966999999999999  5.3411799999999996
 -3.5795499999999998  7.5029100000000000  6.9960399999999998
  1.7348699999999999 -0.8624210000000000  2.1907100000000002
 -1.8073699999999999 -2.1982200000000001 10.9126999999999992
  1.6747300000000001  2.7877900000000002  3.4627400000000002
  4.3438800000000004  0.0887026000000000  4.5702299999999996
 -1.1993499999999999  2.2938100000000001  6.5029700000000004
  4.6100599999999998  1.5724199999999999  1.2047900000000000
  1.5024200000000001 -3.6480100000000002  9.4225800000000000
  2.7061099999999998 10.1709999999999994  0.6943870000000000
 -1.9035700000000000 -0.8407400000000000  7.6019800000000002
  1.4719700000000000 -0.4822330000000000 10.4367999999999999
  1.6552500000000001  2.8779200000000000  8.1778099999999991
 -1.0709400000000000  4.9749100000000004  8.1674500000000005
 -3.8568799999999999  6.2896999999999998 10.4329999999999998
 -0.7814240000000000  8.2511700000000001  1.0534200000000000
  8.8227300000000000  8.2837700000000005  3.6635300000000002
  5.1654200000000001  4.8460700000000001  3.2333200000000000
  8.0795999999999992  5.2247500000000002  4.9506699999999997
  7.2325400000000002 -0.1176140000000000  6.1997999999999998
  8.1062600000000007  5.2899399999999996  1.5084100000000000
  4.9746600000000001  2.3294700000000002 10.0579000000000001
  5.9578899999999999  8.0211799999999993  5.3418599999999996
  2.5610100000000000  7.6101799999999997  7.1501299999999999
  5.3982400000000004 11.2017000000000007  2.4238300000000002
  4.3467599999999997 -2.3902399999999999 10.8228000000000009
  7.5989800000000001  2.5443099999999998  3.4318700000000000
 10.6716999999999995  0.1677440000000000  4.3015999999999996
  4.9709800000000000  2.4481799999999998  6.5944900000000004
 10.6277000000000008  1.4995200000000000  0.9458680000000000
  7.8656899999999998 -3.3439600000000000  9.1170200000000001
  8.7536199999999997 10.0597999999999992  0.8098900000000000
  4.3765599999999996 -0.6418520000000000  7.9332300000000000
  7.8949999999999996 -0.2548420000000000 10.5693999999999999
  7.8571799999999996  2.9760599999999999  8.2781599999999997
  5.2787800000000002  5.1520599999999996  8.2341300000000004
  2.5299700000000001  6.1687099999999999 10.5279000000000007
  5.3697200000000000  8.0629100000000005  1.1126499999999999
