Li  P  S 
 1.0000000000000000
    12.3776759999999992    0.0000000000000000    0.0000000000000000
    -2.5953830000000000   12.3582859999999997    0.0000000000000000
    -2.9697610000000001   -4.5141049999999998   11.4634929999999997
 Li  P   S  
  28  12  44
Cartesian
  1.6611787499999993  8.0865137499999999  1.5045125000000001
 -0.1638619999999998 -1.8953387500000003  9.0046200000000010
  1.3290737500000001  2.1668162500000010  5.8340075000000002
  2.8459899999999996  0.2950122500000000  0.1112503500000000
  2.2138912499999996  0.4401799999999997  8.3482800000000008
  2.1841824999999995 -1.7470637500000001  4.5226249999999997
  3.0366208749999992 10.9650670000000012  3.2360062500000000
 -2.0668175000000000  0.1503296249999999 10.9729500000000009
  0.0961865250000001  6.4991312499999996  9.8562762499999987
 -2.9558200000000001  3.9554737500000003 10.0928874999999998
  8.3338099999999997  0.4791916250000001  8.2927737499999985
 -0.0042113000000000  0.6898111250000001  2.5069662500000001
 -0.5981995000000001  5.6945337500000006  5.8304587500000000
  9.9879212499999994  3.7554750000000006  1.7017262500000001
  8.0109512500000015  7.8783487499999998  1.2538775000000000
  5.3379237499999990 -2.7987862500000000  8.5429750000000002
  7.5261787499999988  2.3151650000000004  5.8223662500000000
  4.7205212500000000  7.2527187499999997 10.8724124999999994
  6.8366887499999986  9.2500225000000000  7.3310849999999999
  3.8469549999999995  4.0220537500000004  1.3157137500000000
  7.2907899999999994 10.1885375000000007  3.5104537499999999
 -1.2777149999999999  7.3447499999999994  3.2206675000000002
  7.6389012499999991  5.7169000000000008  8.1795937500000004
  2.9909987500000002  3.8318637500000006 10.0832750000000004
  5.2979337500000003 -0.0806993124999994 10.2906875000000007
  7.2084062500000003  1.1815184999999999  1.5586850000000001
  4.7755312500000011  7.3127062499999997  3.3538212500000002
  4.4700062500000000  2.5258975000000006  3.7716612499999997
  1.0763662500000000  4.6741562500000002  3.3038187500000000
  1.7542225000000000  7.6773274999999996  5.3068925000000000
  2.3052037500000000 -2.3428999999999998 10.8187750000000005
 -1.5347537500000001 10.1166749999999990  0.7693362500000001
 -0.3754410000000001  3.0694550000000014  8.3521187499999989
 -0.9471230000000000  0.1342678749999998  6.1936387500000007
  7.2234362499999989  4.6193537500000001  3.1686962500000004
  7.9299575000000013  7.5114875000000003  5.2038137500000001
  8.4991962500000007 -2.2511574999999997 10.7517874999999989
  4.7680949999999998 10.0688000000000013  0.8229472500000000
  5.8297812499999999  3.2785375000000005  8.4123250000000009
  5.2606037500000005  0.3110050000000008  6.3600249999999994
  2.7046337500000006  8.5408087500000001  3.7256312500000002
 -0.9484660000000000  4.8942850000000009  3.4739025000000003
  1.9273262500000004  5.4992475000000010  5.0894975000000002
  1.0443037500000001 -0.3040632500000001  6.2842562499999994
  1.8830074999999997  5.5339062500000002  1.6376112500000000
 -1.1511312499999999  2.2924000000000007 10.0427874999999993
 -0.2329490000000011  8.1569050000000001  5.3129612499999999
 -3.6155824999999999  7.6501812500000002  7.0475950000000012
 -0.7520707500000003 11.4221331250000002  2.1789325000000002
 -1.8332612500000001 -2.2349087499999998 10.9338750000000005
  1.7331624999999995  2.7453349999999999  3.5033050000000001
  4.2319149999999999  0.1110889500000000  4.5916150000000000
 -1.2033400000000003  2.2766425000000008  6.4984549999999999
  4.6798062500000004  1.6031062500000000  1.2589437500000000
  1.5174349999999996 -3.6585537500000003  9.4686400000000006
  2.7123312499999992 10.1641750000000002  0.6978301250000000
 -1.9605062500000001 -0.7973522500000000  7.6997875000000002
  1.4527024999999998 -0.4976338750000003 10.4338250000000006
  1.6547337500000006  2.8575500000000003  8.1693662499999995
 -1.0423975000000003  4.9840799999999996  8.1286875000000016
 -3.7750937499999999  6.2451099999999995 10.4222374999999996
 -0.8141516249999999  8.1854924999999987  1.0119625000000001
  8.9606737499999998  8.3974674999999994  3.6913462500000005
  5.1988362500000003  4.8759600000000010  3.2663075000000004
  8.0630449999999989  5.3734475000000002  5.0109050000000002
  7.2164049999999991 -0.1236068750000003  6.1762362499999997
  8.1266475000000007  5.4025349999999994  1.5393587500000001
  5.0070350000000001  2.3661675000000004 10.0228124999999988
  6.0592500000000005  8.2967350000000000  5.1975812499999998
  2.6737187499999995  7.6631087500000001  7.0636100000000006
  5.3331837499999990 11.2797500000000017  2.3939137499999998
  4.3613024999999999 -2.3466912499999997 10.8213999999999988
  7.8268474999999995  2.6924037500000000  3.4470775000000002
 10.6306624999999997  0.0687754624999999  4.3557187500000003
  4.9685475000000006  2.4446799999999995  6.5571712500000006
 10.6032000000000011  1.4727975000000002  0.9721092500000001
  7.8196562500000013 -3.3390337500000000  9.1440225000000002
  8.8006600000000006 10.1345250000000000  0.8424076250000001
  4.3724912499999986 -0.6274328750000000  7.9277612500000005
  7.8785324999999986 -0.2616626249999998 10.6188374999999997
  7.8671375000000001  2.9956424999999998  8.2069700000000001
  5.2850800000000007  5.1742850000000011  8.1816387499999994
  2.5065462500000004  6.2028875000000010 10.4684875000000002
  5.4527399999999995  8.1391224999999991  1.1000675000000000
